x,y,z,von_mises_stress
137.43778492387236,-113.96760483374455,35.64820326468741,1.3922997e+07
87.13028943126795,-94.36001053740036,44.473778482363485,4.2132624e+07
-74.70975215440257,-61.124508296012095,13.70592696292979,5.9258788e+07
150.57909187512962,-43.62707958623304,44.28697087622875,3.591314e+07
92.95218386617807,-131.1876693276347,45.57553441824855,3.732618e+07
158.8314657362978,78.21015258892822,-2.9391256767057485,4.1540596e+07
127.40521653907723,135.12871312585895,46.94421188996774,6.0925484e+07
159.5537776852098,-32.67491882537939,-0.16058095741296086,5.649162e+06
70.58766577110663,-185.527754913986,5.453144783634636,1.2205057e+07
41.01629032565609,-99.73301016859955,9.726137968454294,9.255948e+06
-37.442769941538415,161.97657320558676,-3.68743589684604,7.922067e+06
-57.67621080043517,-191.96703630666912,38.034316239679626,9.794651e+06
-175.15229832757456,-3.4808345767848436,-3.0636231978262014,1.3578483e+07
60.72606877680022,-73.22214364722561,-2.5741039191666024,2.7724496e+07
69.73249962798815,128.7848839934187,31.69044440665062,3.463895e+07
-46.79415058662585,164.54335516710023,12.583072986679479,2.9053968e+07
102.68026718619632,64.6366305499443,-3.745591238035102,1.2367117e+07
53.17061263319965,124.33233491920402,41.10351424931881,2.829545e+07
-214.30407255313472,-13.448820395909962,-3.319889368909961,7.218181e+06
-172.43975106353588,-19.80700513443267,10.477031358796769,1.1129997e+07
-151.022907063832,102.14493306106897,11.588911524013582,2.7775882e+07
-78.08258498520382,-63.176292481612194,36.81396518791178,2.0279724e+07
-117.6812311565005,108.53106217800627,46.98421644665943,1.2804228e+07
23.986208904321785,-180.3709650468624,20.97691714976495,111364.53
-156.24787602151238,-92.99586200219035,5.7597303698993265,822827.3
-41.09190331797936,-178.2922449520299,-3.7748484709614734,73344.26
105.20210258293451,144.52678173640993,-3.3044738334173545,4.828424e+07
-2.347958905292842,-94.28486618347519,30.974759316482256,7.609406e+06
95.59619048836026,89.35812638653141,46.53206917620091,9.282638e+06
111.70122484028354,32.296456133464005,-3.3873674957015893,1.5119129e+07
200.93185448210386,-3.8654476036960546,30.964469407742243,265140.0
-177.3044383374995,33.54465031800146,2.2013008136573298,1.8193052e+07
-133.72953974324673,-108.99693922680102,3.4447087621738426,5.7431135e+06
-141.47778918225782,-8.031539168887576,45.50763109225563,4.39343e+07
-62.239302898440314,-57.68932131240214,24.039376537245523,2.3772018e+07
-168.03275132432782,-35.2599660390664,46.96933401926439,6.310322e+06
47.13784366768033,-128.59799188168543,-1.007974346161245,2.3750782e+07
188.6826703833982,-64.69510987999766,24.721328823452495,2.1608584e+07
-91.2985863381079,-22.737559832333204,20.990251219151137,4.0366516e+07
44.80756544583181,-134.18381004714945,45.702424117739895,6.2697715e+06
132.1966684220078,108.39797967642062,26.040425258188588,4.819635e+07
193.57504576623472,-53.10991515986353,30.687613351812566,1.5090544e+07
-77.46628046411445,-152.33329690517144,43.018091036573615,2.3387676e+07
23.286385488275158,160.24585078581742,2.8799966398220738,2.9438085e+06
131.3646967208764,108.86133782400441,10.802285116180371,2.2134424e+07
-20.84560561078726,-180.48124774522284,22.001948965890314,34079.258
-45.03223383433837,181.15010381594152,25.67395350189954,8.88431e+07
-52.06515297339189,-55.91778040846799,28.303201020468236,4.2740764e+07
88.88618088625685,-37.4072929567904,37.32625439979208,1.6448664e+07
-89.34131361003476,86.1883091638569,1.8022679052844817,8.765384e+07
70.58646793760374,-74.23175929908606,8.793635327226736,2.865254e+07
-77.97371711849004,-150.4906951752448,28.15738658623402,1.2543686e+07
107.22869266340814,63.17431046102689,-4.936295345200718,8.907933e+06
174.18985801794486,-74.46759433665491,-4.180709037442856,1.0353077e+07
-93.18794448437974,35.16263249721467,26.096268315058047,1.0355306e+07
87.71385975950892,46.126585363961,42.964501469089605,7.424677e+07
45.29523628503728,-83.28137223947638,12.396193697193127,2.994632e+06
-155.03656644830312,53.255091183790796,-0.6198449306530982,2.9461605e+06
78.34032513843431,74.26589251495153,24.06271941144341,2.455698e+07
96.75397557695783,159.65786441617672,36.54030183301172,7.0032335e+06
165.37492970219967,25.68167563902091,-0.5150070762264054,1.757161e+07
116.900232833232,-35.140948318325826,22.261175647792776,6.9503485e+06
140.42613246959576,-41.28467829131739,47.016661362543424,9.3904376e+07
-124.57906349087631,119.24695051547297,44.8224118009431,2.361356e+06
96.4980686967462,195.53778457853753,37.23730480070618,1.3089358e+06
37.563087237130276,108.56565449864837,-4.404396934467098,1.6290997e+07
-82.87398894774861,-111.44533664522011,19.907169004988752,4.9619916e+07
-36.30370706449315,-93.98963220380257,43.1695923202,4.074452e+07
18.402534932885914,126.74196085671844,28.776789797076077,4.065045e+07
53.57295896825951,88.26541462752186,47.19456514222037,6.498668e+07
-61.2754687031846,-89.7346720515249,46.45797090675342,2.267974e+07
1.6342216294650598,-204.54988294268,-4.418995070139903,1.8277178e+07
62.74076945007789,80.17036736276481,44.34029895930226,6.194094e+07
-72.75771447859017,161.42846602576464,2.9862762422492635,9.09479e+07
15.839470562815166,-102.78101729650565,9.106195904755621,810916.5
-165.91890914020533,-10.41861520594702,3.4179477471085384,3.2664718e+07
-132.61885208500632,2.3015532065833497,-2.8418894217862505,6.928534e+06
153.18567387110653,-76.16627816617373,35.7114074206563,6.3998596e+07
127.04636448617703,-101.68716792842908,26.80637028615258,3.0947985e+06
78.70542583012417,-71.26111241326225,10.303587410374384,5.685042e+07
-133.72676251267384,101.66950228339846,8.47319073229909,1.7525398e+07
-5.889654294470176,-114.94006207709143,-3.7425163213175336,5.8141335e+06
-108.12942063323942,49.47909915241303,45.23381880138386,4.803195e+07
-55.50543113995403,-90.09213454094568,7.327446191321288,3.8597184e+07
-139.8015319165748,-12.813913391269836,46.932768053501086,3.7127308e+07
57.29202762600255,-175.22808219386243,5.533598412888972,1.5263075e+06
0.265615889033171,-117.39400432913396,43.295941945670066,1.0556119e+06
-81.2436095023179,-68.69085478130484,10.431290915546134,7.4717336e+07
159.09079119395517,-94.03304715754007,22.18013467467478,1.0638148e+07
-87.62846032134162,-155.11841955714,24.56370891144513,1.0660389e+07
186.71768039230454,-22.15850125342658,4.153505268046528,2.5693566e+07
-96.05691266680681,23.62937695548908,24.552201333931375,2.718469e+07
-82.95648274704348,42.53873064347732,27.249498844319106,3.178981e+07
-155.8825011444914,86.10843616605518,12.485308257449724,1.1743308e+07
-102.98045678544108,135.77741784909267,-4.007283083800386,4.5298812e+07
-93.02958485958852,100.38967066440591,24.297978704987234,2.4708478e+07
146.0218858592077,115.25718953385217,46.823661665147476,4.6875384e+07
94.3902708966603,-110.1248653330146,27.867065933967403,5.1826172e+07
168.21537862179724,-2.4110998975718587,-0.5593305940449049,2.3743678e+06
158.41597472777505,102.30456748537887,4.333399486748371,3.6637204e+07
15.76995779761026,188.86377753614926,9.921176241694518,6.8342715e+06
-52.03894491244651,175.67646119204824,46.90414239002383,1.8192134e+07
144.10667741764274,20.886199728047075,-2.2497335287825115,2.2699546e+07
28.801119414816327,-96.24742085231605,-0.5437338435764163,1.9095316e+06
134.58782955980774,25.64841866017909,42.69364997738615,1.739493e+07
-145.34367394377102,9.637955963741405,44.59671959667576,4.7182052e+07
-91.27657762504244,-149.08210332111645,-3.360554103580165,8.3008305e+06
72.322133151186,81.90140490878878,18.304204647582424,2.190406e+07
177.68999596227445,-59.481431327966305,18.495104226953796,5.784311e+06
134.28858219719348,-128.22218571148335,2.3052275114747953,6.9765096e+07
109.74911287882145,-37.473694175578345,10.668321329632155,1.3769791e+07
20.436050239103366,-116.63123636308435,43.665302920336934,2.7862098e+07
14.734450411306511,194.65058321183938,-2.346049843836728,1.4934387e+07
33.72811237903795,148.33928838387635,0.7251544553826736,112391.99
47.03967283851938,-167.9018976397046,47.349865028777,77227.25
-130.4126388484138,72.66128993436661,38.89254935784033,4.3089625e+06
-101.86575855739537,-62.46806152962117,8.935230715627467,9.21246e+06
-151.19489547114975,-78.97554912531547,4.86502706214679,2.526249e+06
28.079027161262218,-133.33927651660355,11.13378388085626,1.1576611e+06
61.737134726270426,34.51579179985063,-3.362631150861512,3.0528e+07
-132.20718824934403,25.578489346121216,1.795863318527772,5.26369e+07
-130.55008182472955,-53.49495337833321,16.386499134900674,4.1109856e+07
-33.746302740150696,-23.590004391912487,17.120970054737032,8.5002344e+07
89.13539619481963,-117.44836627770118,26.922389621890886,4.7863436e+07
-195.51960152614078,-28.294009239828682,31.97310063726661,955336.5
-41.87130910769412,-103.87993340557156,45.1633278065643,8.533694e+07
172.74704575190987,-54.63062685153619,18.37350062707592,2.0551814e+07
143.81775354304608,-100.67836380562488,45.777836068144296,4.0253852e+06
150.90269553509063,26.521554308199967,44.16787217155966,4.6972765e+06
47.70314619123809,74.76087585968264,37.65491390866221,1.0943831e+08
-170.4359461231603,99.50594951742869,8.416097948335084,1.6301131e+06
122.21172522008845,40.79339805042511,45.343018954783176,1.3761047e+07
37.961380604382384,169.21591809874843,-3.3184658834294343,261306.61
-128.50873104091733,9.91144723971442,-3.124628103059555,1.5595165e+07
143.13213473812482,-126.85399784488406,31.960516499546607,4.7869012e+07
89.19854644596819,-0.13220796594683293,32.33514272378835,3.4869612e+07
-182.10261159016858,17.183358674473595,-0.255700293504308,2.6610212e+07
70.49916677749496,-69.36694621252397,27.402905840798972,1.0725208e+07
182.3603517871515,31.187335376795033,23.33197113169871,6.0576115e+06
-11.328410436601843,-188.3825597459715,16.771767013679593,211364.39
38.92142151488653,-107.17106983066785,12.791670797683974,1.6214412e+07
-111.95209685928484,-62.56999040994543,44.16059194027724,8.575648e+07
107.02035153065952,134.63094946170793,-1.0864926373408714,2.070782e+07
-182.33002456179443,13.698014421966604,44.95069447679203,8.785275e+06
-107.24273537423277,-134.95279489095134,12.65356779814595,2.8492302e+07
121.81258000962873,93.04655090638403,21.317301682047024,6.7890184e+07
141.72521164830846,-99.45740737171253,45.22972004605235,5.5955785e+06
172.849606497999,17.33544510709413,-2.068703313872963,2.7555082e+07
-142.1518014158563,2.170839676555943,-3.8747198839266823,9.074434e+06
95.04268031816702,43.68745994162617,-0.6721194640196293,7.7887245e+06
-84.35537945400552,-151.201244205016,3.3302859408040053,7.702776e+06
22.903179730685252,-178.3904770384641,32.540317864812046,3.2755165e+06
-193.1903124678483,10.730738057639854,-3.1033227344123544,1.3868461e+07
-69.65720111679519,-181.47246308156684,46.445589500688655,6.1945035e+06
-13.289637234182464,195.9645612171629,31.67296882205156,1.1758406e+08
-120.10776964889399,5.2593092177544065,-0.9847928322909629,1.8002226e+07
-177.66357384623785,-30.12603461443453,18.454957298562995,700020.56
74.13390476674653,-45.441395547663575,30.184320057465285,1.4293667e+08
-104.98704006483618,-20.070903679858105,21.103945424661855,2.4212198e+07
51.9412678380761,-189.5212872175338,3.6785065182404466,1.8266075e+06
-116.28267965081521,-16.154289951675537,28.81445713707025,2.2702632e+07
-112.2316881521091,-115.65160948203312,47.404260295654524,8.983842e+06
84.72927179900091,-72.40206926834884,32.936362073791656,2.120477e+07
-78.64619007072861,-147.89128390887632,-4.9881720595658,4.0243685e+06
87.69667718280647,-65.07403061454355,-2.413560991029462,1.0985452e+07
-84.18841783063218,128.8113445658738,-3.6271752166977165,1.8333218e+07
176.66331952666934,-5.069259310643218,38.25716317003385,1.0552071e+07
29.66887015677591,152.5347560181683,45.98217808739775,2.0348574e+06
109.98687767522881,-141.17860542431333,15.230816438392395,2.4066494e+07
166.47687865706575,-26.335282087346684,-2.9541197056926265,5.2311868e+07
-174.0532358287606,-0.8846098126855964,16.723521437098558,3.7011876e+07
-92.16523966633461,43.79295513280209,0.5631520550277749,1.1265506e+07
47.63888759016015,171.7909897608708,43.40821249087356,4.7865705e+06
-103.19446704709405,-130.84501021655686,47.154781969398336,1.3287944e+08
74.62817988545731,-11.837737606893285,27.5743119635204,7.6410424e+07
32.510778176159164,93.0119818519533,44.56501033562224,5.3342776e+07
-200.56725728295018,35.396620558328976,-1.9650492282852694,7.3480335e+06
-154.55449496272712,17.579979298372848,-3.126272089694597,1.3459001e+07
-60.43049238248176,-123.14830779677679,2.924709715705996,3.6195092e+07
-20.340924052077867,-103.91356261454403,-2.862261497190847,3.279401e+06
-84.71486373140522,61.66830556549445,46.91557963539963,1.6367571e+06
58.481978479861425,-143.6795779577882,36.83873902757117,1.0516304e+07
-182.42691940698566,29.12765351674875,17.919541779359015,2.3686038e+07
121.0937606226318,13.988842705280888,44.01089176730111,6.1131988e+07
89.06094002310402,-88.57189417410405,-2.3120285656369086,4.3582544e+07
80.19685217195553,-62.929129829987204,45.62435602613519,2.0339078e+07
-71.11143787233041,-76.2221516237978,-2.8173631415153038,5.6496524e+07
160.92479938781344,-38.63832164501895,43.37981458908404,1.9226402e+07
117.54707761320196,16.571519606811506,22.861316191556813,2.7796238e+07
7.780944545240999,115.36832125534715,-3.342997572563962,2.5335814e+07
34.15497977119003,-165.0302306561757,-0.9550243070340922,244742.58
-178.32799472019235,2.309186637633559,26.679809675570713,5.909525e+06
80.46299717503638,83.81926706912185,43.323717618568345,8.785471e+06
-99.73199180278282,-30.86551018106792,45.073369507517256,3.2314498e+07
87.1854815805059,114.33074444442911,-2.95386589816161,4.135868e+07
-5.499793413809812,-176.70248303073424,36.71451221496456,195447.44
-67.19603534458068,91.04121904052641,-3.2768978834916074,4.7850748e+07
158.0958999971304,83.1344569599728,46.379937308427,3.2631535e+06
-61.71706140346575,112.79089538812917,37.29068095008358,6.107558e+07
-29.045324577151547,193.53948424009144,17.38200054851151,3.230088e+07
-71.40732202397987,-162.9082985712565,-0.25495347706353044,1.1309729e+08
177.05461191376833,22.20455190386852,43.52071289734,1.3270481e+07
107.57478613982431,129.28274815929586,-3.1142089054764246,2.7646292e+06
-14.305548673382589,-82.21927688491925,26.21154001596016,2.7186002e+07
-88.85175057222523,-20.65356926127572,36.86415134784164,2.850113e+07
-67.73505486179374,175.82365426962286,15.243457363280005,8.428223e+07
40.2100116648669,150.9137092745362,26.60369406705104,1.0940107e+08
117.79324268287763,-61.55375829452689,-2.28295233369821,8.58909e+06
-53.12664308055119,29.49648664233908,22.187526630840647,1.0519956e+07
113.76893599605813,47.52562566916981,21.45425607993421,1.6773221e+07
112.62561436392008,-145.53046652550412,-3.1545777891374334,2.9217948e+07
102.10052320578126,10.87665293957079,30.573274656397885,1.0768853e+07
-179.6407058223429,-15.234743784228897,22.230988652099185,2.1220778e+07
45.01192264798004,91.02786292249618,-0.25590339952485763,1.702368e+07
-107.03914820725929,19.053844698679143,26.513795065995634,2.1725994e+07
59.13469833410477,164.22488431692716,27.496087622846552,599093.06
3.1657439618379613,182.7748651491658,2.343042165430103,7.463814e+06
102.84308364730651,139.2676130858198,17.128073171353737,2.7656008e+07
7.528854961374577,91.3854477156982,-0.1902188636430786,7.936546e+07
111.9482738267493,-19.682462890972516,42.99683334083668,4.18129e+07
82.86352815952506,117.62266191943013,-2.082320957080826,4.276158e+07
-77.66131484351942,-169.15686285312705,24.20138406663197,1.794327e+07
124.54320833982604,-65.22217499390851,1.1968465162151887,4.373591e+06
118.69661003284972,140.0406913757721,13.511410817275454,8.237776e+07
-112.59434582855339,-139.366964499954,47.37183916377946,2.3497174e+07
137.7402483285626,10.400529875978577,20.499528544737615,6.1513765e+06
52.16794758861653,-86.38453331137168,9.160611674881444,5.541571e+07
-80.89789595614442,-135.2379440550243,27.141823645261283,4.764278e+07
-138.6105693194428,64.39502354361065,43.66799220635657,7.874661e+06
-20.442388136869226,-86.19006484776236,-2.007895236594126,6.099996e+06
-87.34849598260502,53.60063697263166,46.163920706822154,5.823199e+06
-99.27531996293006,-75.91565662331556,46.79395882044449,1.188689e+07
-146.90758875038787,111.56980886321503,16.907748760361663,3.061948e+07
-10.476052169748158,-211.45287735501898,-0.7302068019821855,7.356271e+07
151.3855391085322,-2.274934385033845,-4.316086306347192,2.2065038e+07
103.27348435711224,-74.76946044590184,-0.8711988111179201,6.818047e+07
146.87777362371094,-60.7440129298935,46.46243742965836,196649.84
-117.70382489997544,-3.149702995138142,-3.151825345061674,2.6648746e+07
-115.78251872518774,120.89820720394522,10.967149414204854,4.330159e+07
8.530056227515217,196.70273130249853,-0.23789180084536277,7.653261e+06
-129.12798469652498,-122.65605888192094,45.76065795468887,2.3648728e+06
173.69917674228117,26.604205586267796,-2.760667165091117,1.4678527e+07
103.91967192641073,-31.812955543598832,46.22922161036026,1.0078393e+07
-108.89924241539362,135.99613211536456,45.79799421068929,4.7921596e+07
-127.24430484674427,123.18098909962106,26.307713168406536,4.4989364e+07
73.06399214228975,56.313245787673566,29.62581092260536,8.796085e+07
-47.82644250540531,123.35516006114312,8.424694786763876,1.2409955e+08
21.957075741518423,170.04276336326865,-3.2461032810294888,3.838399e+07
-151.4671934043315,12.03090892850426,-4.886504906245783,2.0178564e+07
-6.846066832794975,127.34570626846886,42.73395137836794,6.0770816e+07
-81.76046726908592,-80.57121258360084,26.871288627917608,1.0081337e+07
-76.9935315997981,-91.42379089470825,28.91229410976552,1.6464832e+07
-182.7689068245981,10.057158603569462,36.38530734150235,2.9758576e+07
81.61659884665073,-189.37945388892095,35.531038944062175,1.5344242e+06
-100.25173372064043,2.583785489070493,40.4300489601193,1.3369376e+07
-88.08025883783552,132.3294999511573,11.51911547126102,8.756591e+06
-162.90055032817946,43.487616833033144,22.807866457188965,2.6414134e+07
78.55609158227463,106.76601998892221,44.089314498955446,4.9325096e+07
47.663993046499,-5.277926396631244,39.85850581874933,1.5561053e+08
55.00837296004323,74.47566232418677,23.211159450895344,7.162342e+07
-2.577227986495785,-99.56655154966813,29.598741089701477,5.4762624e+07
-70.00252167851266,-126.04525299637739,-1.6753108076668806,6.07785e+06
121.88254034671178,-7.183430699404539,45.47042721614655,2.245796e+06
-162.7047671165795,8.168153634975567,37.317582607453765,4.107956e+07
-73.35001452001714,-173.00093842235555,-2.247036379951274,4.3612704e+07
92.09032930416964,-35.677049557003414,44.91749797781678,4.978866e+07
12.906462825199299,167.6694383229343,46.538056507488285,2.3392312e+06
-119.74545602481385,-1.8735662905873482,47.20939453500491,2.5502512e+07
-105.95103911642231,-149.42798036051775,20.300847716357044,1.1387323e+07
-45.550693399302105,-171.96714876981193,-0.32076505121226706,175452.77
-20.980932999064038,130.81123402888153,45.675051674579684,8.063439e+07
85.19164949104072,-99.37335148595179,3.3241184790704015,4.3033664e+07
-91.38147503142706,-38.87155739630168,46.77700233474761,1.1008558e+08
-0.9669286553884717,-85.68923755861331,36.12988363119371,2.5019328e+06
138.39559511441104,37.53940293750003,27.522790856770285,1.9855638e+07
178.90856685374717,34.23119691945436,45.928979336744064,1.6835762e+07
-131.69337611135032,-71.13324125134307,42.81955497238302,4.320058e+07
31.219865985208088,153.20460127036847,30.84809671974515,1.17172376e+08
63.96197508590734,102.7319128072453,15.015792255242712,2.2079494e+07
72.15372967369905,-97.08623046251526,45.4239854441373,3.001625e+07
-165.73799789491824,-79.61016538744434,30.22222696458192,1.4607591e+07
157.28958814766588,64.14563770665,40.14202184772238,7.5546835e+06
-176.24093338509292,49.27289592382567,35.01598280406486,1.3490532e+07
-130.76634932955324,24.34676053625992,-3.9325334406139234,7.1091515e+06
-143.63178307115675,-49.411935496867386,45.537976569103186,2.204509e+07
-41.49089809833947,90.56933199718588,20.796759260808464,3.0745792e+07
-89.23343975975453,132.85237837022754,-3.452207516685216,2.0115026e+07
45.31251369913019,-182.40369575318462,44.471353266174816,8.571789e+06
-166.77675358094467,-51.47179677111737,-2.632287328337362,1.1044544e+07
47.18358862370877,-141.70310718719213,-2.9509916614083753,931712.7
7.079207833367235,106.35401938820598,-1.606196024391438,3.1127648e+07
102.91116648509711,-150.61304662948277,24.983750154069327,5.057703e+07
-48.090703207148294,101.54261710372225,-3.322416683896283,3.590157e+07
2.500124332438048,98.4558661049121,42.92240378960159,8.8648557e+08
-6.036157961013657,124.59684043433134,37.68084469247154,1.5752394e+07
-158.80978498797282,78.44114376261984,45.465735461045924,4.4662685e+06
-131.01275330119182,-94.44558706474554,47.25106985660765,1.8826138e+07
-86.06480627678283,76.21272274544708,45.9191158051131,7.29998e+06
154.741843865104,115.32794836162384,9.506893683874216,3.170122e+07
-153.8545202977009,100.44622744012463,1.5301894132565126,2.388285e+07
-146.3429253743879,-120.08497512064073,-0.8427283091588107,4.193908e+06
-77.79763913631143,50.89891271845164,2.032806967834282,6.0198024e+07
-135.02353184373925,97.32686385006053,24.317526735609626,3.3966716e+07
-69.38209302903877,195.94573603766293,29.931956096581757,4.680433e+07
30.948129779473277,122.57327898179864,16.505913391793015,1.3820938e+08
-145.8273971424459,75.92883275038093,27.844554164845775,4.867234e+06
124.74540366100496,58.32056035484209,42.636223162696425,8.401276e+06
132.5406987364467,131.32629481794345,15.462962892373465,2.7609732e+07
63.979662469916434,160.17308713496027,7.678767051526039,9.923017e+07
12.951590118703308,180.8696965298779,16.70593237962074,2.3515018e+07
-186.50875140780394,-100.40320036296865,4.776019574067389,773117.94
104.2586268031551,-146.9815848763772,9.691070088481705,1.3294011e+07
138.17058079112354,113.330402569412,9.565032417214463,2.0371726e+07
73.26569705813677,97.1508802734167,-2.1947663134720434,3.5536972e+07
-124.66226307755284,-92.52992154200597,-4.911378014536041,3.2470178e+07
172.17920511872512,-57.494361507461264,45.96085665693433,4.015446e+07
25.598917523585328,182.51542041959664,17.240216431543374,2.7997678e+07
177.38631622640634,52.333935036140076,-3.979968289856729,1.6805838e+07
97.4427427103468,-143.3857884054463,-0.3408449888859906,1.2522085e+07
137.65738385714081,-79.43862705610792,39.27849737491276,7.7772305e+06
-107.51902739356103,-35.15687557436783,14.74383764297508,1.4227666e+07
170.5051042920087,12.841161115945056,-0.033759747828186804,2.5975384e+07
12.641370930413615,115.16812253590274,30.320743986582357,4.9514948e+07
-71.01019581936754,-107.77229609183702,45.70030894651687,3.4126676e+07
35.110864563787175,-101.99597544803028,15.394510377973841,9.550355e+06
59.407586357661216,83.60389431761268,18.788421618301467,4.1635684e+07
-38.82569458429535,159.46103280061573,8.317818592326413,1.84743e+07
-24.196305762725217,-97.56722689149771,20.349055551425067,1.0944705e+07
30.109768054977565,-167.5112353336944,30.36532916382361,74176.42
-138.67290864272795,-27.880351536745053,40.075370811043285,2.7210265e+06
36.76032819978448,176.74733344290223,11.608547179321661,5.974066e+06
-71.13505539318015,165.31837961419598,37.667128318051226,8.577394e+07
114.87661640131478,-140.2209466937448,8.558551519856225,8.220288e+07
87.46325598245801,-17.705524465087052,30.801087982077114,4.823071e+07
13.601206997807282,-190.30349016197536,5.2330058005914495,1.2793471e+08
64.21759688937527,59.69415019051587,30.345078566925743,3.4357896e+07
-116.59717697327206,105.81754316510774,2.290887602360386,2.6429772e+06
170.4519043067976,-45.5660986105421,29.04645283971771,1.7608998e+07
42.61983754415945,-90.21553616593303,46.809923486358564,4.6465096e+07
93.13398364320705,-87.60144654024401,7.572919546558149,3.909287e+07
79.50716698081982,167.51062437965038,46.9462356937594,5.0544336e+07
-103.05889882966078,64.26465214920091,31.80045896356164,1.824761e+07
-94.95932264019616,-19.773375839258676,-4.926750116805514,9.698377e+06
73.41208156024169,43.59854793554297,-2.832043009732205,2.5284602e+07
121.68416620085969,-104.00415311857978,30.931498282082323,8.218883e+06
-89.7730319727109,30.66019031260629,17.946815508113648,1.5368747e+07
188.6208104038676,-12.733525840282027,8.596002940609884,8.284767e+06
-122.5855952876063,-5.9014796177091,32.70191210631357,5.447585e+07
7.752962452869042,153.11916363280778,-4.174645688008217,1.7744382e+07
77.68661545574298,-171.59356933166498,-4.367847519449909,2.9813132e+07
108.79752965389815,44.784150568504685,10.246745856194831,9.161166e+06
168.22864819424848,64.40478720291577,22.335452768049805,1.3376085e+06
18.291486429973077,168.01738731094815,35.20068728947612,5.6612735e+06
145.23083144187297,12.36268002058506,43.66317493691717,1.6125456e+07
97.06539523025543,-115.45314439298048,45.848001382850576,5.413848e+07
-182.34581833380304,49.5863577858899,47.30355456863319,3.3341132e+07
-121.55456913275323,24.86949935336432,26.888382213506436,1.5944705e+07
167.9221244077712,-77.5704412197158,0.15253939562810004,1.1375522e+07
176.05020955180805,-2.662855171079002,39.269354666031326,4.0683292e+07
-162.43853482834632,63.878215956199256,4.630893556487072,1.9943646e+07
23.58788204800595,-168.25110640604163,32.641453129428136,208021.7
-53.97433767255734,95.08534456756422,43.513747315142105,1.2030283e+08
115.39156333969106,-71.20577156177563,-3.7486041265027437,1.9418644e+07
113.84975809001759,-11.452521807618979,12.326729365167942,5.101617e+07
-10.328418512198027,-158.66832298071355,11.283974626949785,351215.72
-139.1384367869112,-40.41174927462046,-3.0919225423711802,1.609793e+07
-81.11154946445922,54.422469023621886,1.887284981876718,1.1949449e+08
40.90511034577966,174.9596218932922,20.22266633332545,2.9834898e+07
-74.42993464467247,116.39843738318723,29.425486357465502,1.8061078e+07
-16.652837061038753,143.3371633083479,-2.7462990450766243,7.5484425e+06
-92.12187162645502,-28.01507302772592,6.567672732624171,3.0325836e+07
-16.299673059304325,183.52548386851856,0.931182492435882,1.9994422e+06
153.83227878255832,67.01042165620908,11.729830228743449,926336.0
-4.260175242921861,-134.06140058166287,11.104477314422436,1.7719662e+07
100.21041133579877,149.06558260936163,42.64202221431435,1.5319318e+07
-7.659508628397077,-189.75200027305124,-4.429436877134425,8.518014e+06
83.16005176324143,168.58953505756818,28.038263582071842,2.4440966e+07
-121.99813197069534,19.423517766402057,44.163097350373505,3.3281044e+07
50.60786339967598,-131.41431065136504,43.91135041464706,6.851432e+06
-19.71219066954535,-182.29757735642448,40.24406325124442,2.3706248e+07
-155.494281388746,16.023847011755436,-0.1413118987638784,1.6341064e+07
153.03870982206325,46.70507174460596,-0.9648633990792534,2.2165972e+07
-63.766602971683085,68.34791240486066,27.298781750152067,5.9498172e+07
-26.76276998588986,172.12595240056652,6.356183737070079,8.262213e+06
-153.67460426260322,-83.33416674514496,23.040918033721965,386437.12
-13.62417732062562,114.91264556806692,44.92315029222118,3.6606518e+08
157.4210472017768,-87.33835255273573,28.8324186296107,6.6734725e+06
-115.9218863423923,3.9779444938252766,43.30282895315752,8.435836e+06
54.24683249057682,-87.52422263577238,31.181119732770476,3.2118334e+07
166.31116782186922,33.2527117758157,33.93572486677266,1.815609e+07
-34.595023447786446,176.73214371337008,-4.379904944820418,6.4528975e+06
-83.58658495262847,-46.04767929963279,-4.3968981458560705,9.288073e+07
134.47241847860863,-69.58364181246802,46.56980358020062,8.1556225e+06
113.58409437181717,-78.45575601976242,-4.635199015344251,5.0705856e+07
4.8678933248242515,109.92673118292555,7.727045440123948,3.2885702e+07
39.86866675690024,-155.00500900062946,43.234894263799006,167566.8
-99.75950697275198,-158.38950687183026,10.704151048632657,2.2030878e+07
-21.46645403715678,92.8142781835478,43.96250966275515,3.4085756e+07
80.3768971046444,42.291595074001464,35.56245067448099,3.167628e+07
169.86251258251622,79.84962269686525,28.421886726798014,1.6654303e+07
8.212309635603162,-191.22509458036387,-4.661632118368737,8.0394465e+06
109.04558363175119,-151.73401912086524,12.988000008429392,1.7883992e+07
-141.4498060083663,125.9776225730451,-0.13392286987259183,1.7832194e+06
118.37311687310876,144.42813662038628,-1.3477070790258479,5.21961e+07
113.16552784178248,-124.31863175031332,46.67692572281931,1.5370904e+08
-40.796720487332294,117.57661711496996,46.697246565800924,1.3460472e+07
-47.71581943096109,-76.43618843518863,27.975007948989607,1.00801736e+08
119.61722485320632,-162.47618000244933,29.28359701989021,4.5093816e+07
129.68894015317898,124.06261760268183,10.343718188386797,5.1353096e+07
-158.72389481354446,43.82261947690483,2.935659586665058,3.4395115e+06
162.55789595898074,77.57354495576163,26.984740650652213,1.1856543e+07
123.46647539538742,30.99626575484635,27.971778034003478,4.027514e+07
124.78738416808511,3.7473989877874487,22.379792641667663,4.9451425e+06
-133.35039576426567,15.38048977219836,47.21340891003086,1.1369613e+07
57.55119068371215,130.8509155587489,39.46502018453796,5.8994216e+07
-129.6929939540954,12.50639085387374,41.48007781984528,3.436754e+06
-30.093904998462534,-188.2214013828866,19.689790658475733,2.2589484e+07
-73.80417240792053,91.27049492611002,45.88835746807765,7.264464e+07
-102.08264854292648,109.46551892438964,-1.308287892094012,2.408439e+07
166.22200016668955,70.16881446803023,16.97139232648696,413679.66
-80.4516393056154,111.00754684621802,17.261479126232334,7.74859e+07
45.54649614190595,101.22053457532871,43.451465131604145,8.759902e+06
-119.43147590895238,-47.035096828650325,-3.860534775289932,3.6441604e+07
83.39599685596886,111.7282115400937,47.38432538602184,2.8960652e+07
-127.31655942635332,15.797827470455843,46.922947517286524,2.197698e+07
143.28175264525396,110.22594055932069,5.295388635073612,1.5559624e+07
117.87815915826104,103.71450450894184,23.689862554555837,2.6356942e+07
-8.756206123409896,141.20250551271835,46.245524618232075,3.9841468e+07
171.45600044989845,-73.80657318256698,22.39933323585553,2.7341992e+07
-167.04625182688264,71.55674048271067,4.739966013817215,2.3257044e+07
-55.61738276377176,-105.29002650664286,33.41248465710904,3.024501e+07
-50.28008559853677,-173.07286031398348,16.713853683205716,5.532297e+07
24.157310664015057,98.69782555724862,22.876316152999582,1.5276878e+07
1.4824211119774304,96.33287247672911,4.845911340346561,8.110546e+07
-12.119867074692536,-161.3949348162222,46.08046923027883,6.308934e+06
-148.21329810983087,34.75915026818535,44.46412849547945,2.0018336e+07
14.911260796082473,-150.83296163782637,44.31024018027802,1.1297629e+08
130.40568114783088,-70.1152779658274,33.90128437871502,1.4376679e+07
45.549389056054736,108.91269642425982,25.17981394869972,8.065321e+06
53.8354243252129,96.2054415100888,22.475884572226086,5.7837828e+07
-151.84589207373267,82.99465392498445,-1.1013367184220813,1.7560816e+07
73.65043356706303,111.46847742895562,16.937508649702178,4.2349812e+07
108.07259745818112,91.35193474838712,8.31372107781962,5.0342264e+07
49.93055931748546,85.51024889938338,6.657577025185354,4.137896e+07
90.22700920860149,63.0804342861976,15.872576327033148,4.207563e+07
-15.247470859507303,-140.41271373737075,0.18931201386658447,9.988434e+06
119.89917364807104,-3.7773462825914237,31.57171077231517,1.9156218e+07
112.93963263016934,-80.4646517503416,10.533869912150815,1.08076424e+08
-163.34257100437893,-62.92698898497977,8.254858907906575,1.5994983e+07
-101.84580613306655,96.66363435907817,44.155106403477504,3.1007562e+07
115.50504480646015,158.9803684734175,31.651176937297755,2.1298448e+07
-103.83769070537278,-83.05878123599962,44.26940109429868,1.6708231e+07
-12.550101781509852,-200.70078930019426,-0.15736730365543927,1.1288707e+07
154.64290087825572,-29.757053906789906,-4.350670216450028,6.186535e+07
-91.7154264008278,-65.10672015845347,17.48631930028739,1.2483915e+07
-156.16429312151783,-19.31948908804219,18.38596455859677,6.2634375e+06
-72.40163420011808,-90.81917520076739,43.4256917610786,5.118273e+07
-181.75072013748004,-109.92608555646612,-3.607860994190025,3.1759262e+06
145.32587745990503,-94.78221965913912,-0.5021396298173499,1.2664637e+07
-8.02586244969578,108.50946051096935,-3.094986429292163,3.629348e+07
144.55596129306088,-73.23512157439481,23.38222140588315,2.421449e+07
140.21178198387298,99.51156127468971,-0.8710652946215109,2.5693834e+07
-75.62773997049848,-152.62206360614738,43.61483267513086,8.3368045e+06
105.16861688810155,-141.0382584960573,45.41728318105163,5.1214876e+07
-100.46253138935097,-10.32443870754318,-3.163295411139901,2.8074304e+07
-191.24258455659935,-30.638655756720993,12.932524935700286,340051.53
47.80501383277607,-150.64034014430067,47.37447863623139,1.1868805e+06
-170.63752013347653,-43.509030708759695,47.27475197259144,1.5918515e+07
-157.409656039759,-9.722025744927606,-2.3310230199274384,1.1312489e+07
63.63400651770996,-105.97807679167937,33.310358530198535,6.902345e+06
-84.49781714729713,62.67208577414317,5.105178164454374,3.3020548e+07
-166.71876003858839,23.52555661648566,23.89258342470266,1.4775463e+07
-62.524456443150655,174.3952443106544,2.6245196543163214,2.8236188e+07
183.52630892510416,-50.9189524358286,16.78365271811178,3.1845142e+06
-8.178520137543018,-168.1714116848002,30.6439933335905,174626.36
29.312524040883176,-5.413998778053951,30.074854765982487,1.2211477e+08
-106.4464442963142,32.710481451758994,27.778731950163106,2.9912564e+07
101.98173958306091,-125.95682580794325,-0.9057020669025215,3.0094124e+07
-69.06938398409025,112.85417331285856,-3.377824732584461,6.3802092e+07
-155.359599502706,-61.546617164625445,-3.3357340051915614,6.4875544e+07
77.31477749662537,50.887950511978204,36.370140661149414,1.9144654e+07
-136.12066804362243,101.24798027257464,20.280259204258446,1.2570209e+07
2.063822833630553,-176.22005679539222,46.87615723838077,215510.69
-159.07772579503907,-12.429396235087125,19.81661136002366,1.676865e+07
50.95112986711206,-193.28421708850846,37.342081716858644,1.8020974e+07
-44.314092951444366,80.90505660738103,17.534092754478202,1.1911518e+08
108.80113239874811,-158.882701567925,28.12611817184112,2.8667264e+07
-70.87256443469084,157.04961134055804,31.116805229452638,6.498277e+07
22.258687501473617,188.45796522074124,12.820182589124926,2.8264958e+06
-63.10648701508512,-171.13515826059245,18.833277269813443,5.1512085e+06
196.38055122578294,-6.14932437905594,32.6195501513645,1.0515381e+06
200.98709467569762,-23.448115218216486,46.23778426057449,360413.12
8.568249485600433,-107.64890894338372,-3.3883851312619084,2.061386e+08
-158.35321807630956,-41.56125692759909,-0.20517145536806058,3.0547332e+07
-113.86743386467212,-138.48724511312136,4.250157839808196,2.6556754e+07
-52.581591513338566,89.53288707906563,44.784215582492415,1.04029976e+08
-95.78538527839682,145.26842032257025,-3.3046361315179382,1.6113107e+07
97.2030274189284,100.25955342343434,-1.765279870337912,3.103231e+07
-162.1829041979513,-38.3582379509657,-1.3806694418498409,4.6283356e+07
7.125465438794521,107.35232622139858,30.6215453978361,5.3577164e+07
-167.4614702586398,69.16080701091983,17.11682590562473,5.719699e+07
188.348255131384,138.96376787008444,27.558670614260286,2.3621276e+07
132.93182443323406,21.080149990199857,43.223951266520515,1.7214286e+07
53.10260414438159,164.97192948728502,26.042286296697704,1.767221e+06
-149.17008655597263,-111.04672403251531,14.01381777597119,5.111529e+07
98.94888934323228,2.9614714743438526,42.56277057739353,1.2376693e+07
156.09027809604413,3.6678464193310845,36.37491774737065,3.532537e+06
160.406710850023,66.27379834557507,27.1450627471107,2.947459e+07
-47.34986810188374,83.63252548907371,39.823948600187826,1.1290111e+08
82.9293511144864,-55.036900274738116,12.610916034320805,7.825679e+07
39.4154774363077,-197.64028135643755,14.707690096288573,25225.879
83.83957472740741,-50.089463618729354,30.22674453750161,9.243099e+06
-103.50245694504171,-118.28916341662213,-0.03327125936489317,4.1955856e+07
-75.2862363616839,62.436124885855406,34.030497084540755,1.6619935e+07
-79.1127448687678,-16.201295651727776,13.21850659929515,2.1082678e+07
148.02596428654834,19.188708307789597,-4.510899215423398,2.6835338e+07
78.83502445909278,139.2256900907226,36.821412755544145,1.0444376e+07
-85.3093863085723,-165.8990593569126,-0.7760605127143139,2.0132398e+06
11.181328183149674,152.5422257710557,19.103321689692613,2.4422886e+07
33.57930148410847,152.67071134785158,8.45552949880462,5.69065e+06
-8.456927291081968,99.96795082248991,4.871036411978739,5.3003176e+07
-82.60378497540097,164.40135703738565,-3.635730340972513,5.845964e+07
-23.629009846917512,-97.16930255640119,39.1896608154409,3.714611e+07
-145.39191768919304,-0.9753051382004685,-3.7407667438763665,2.0202488e+07
19.172378931512384,171.35875856509227,38.57366496196254,1.8330365e+06
-194.44465100229303,54.750797365271296,20.391772181287262,1.2096625e+06
64.90167078625512,-71.57414273999635,-0.6902092022831603,9.348706e+07
-88.08180207055642,50.806332572693975,18.92720583714294,528415.94
-3.452684196809713,106.56661784113197,-2.4909324497791365,1.7876443e+08
-164.98687177208447,-37.314993144241555,-3.733451406968311,2.673131e+07
-83.77518125665765,82.2180787727749,12.251706439679204,2.7746464e+07
3.329142468808385,135.41517681500346,45.7408658303074,3.0609272e+07
79.72925777481794,158.83923131380607,25.90565164856254,2.9985228e+07
-45.37794979176155,-167.90569704602518,18.57729279441736,2.2572648e+07
188.36852685098808,-38.791934445169915,33.87446403606426,3.8241004e+07
-69.92029659808753,39.78518525130082,22.37848952705557,1.6055066e+07
-68.73067116926381,78.9933951604491,-3.0053889058944274,5.4533316e+07
33.23787790871097,178.12466734445945,9.0943648083784,940089.1
-21.393179365154964,-121.19128377140689,29.03879708591689,6.264316e+06
96.13324843449823,-44.7930467467763,3.4944337207165095,1.0764342e+07
-77.38598619328295,-77.30898030480367,43.82639369213219,1.11131464e+08
106.73167427387256,3.608141932577155,39.35046388940801,4.7758412e+07
-81.83199365843356,-165.18929083460716,14.53780626476161,3.0656766e+07
-106.00552025823956,117.92488433067382,44.03581187526995,1.3612504e+07
80.42379156977591,150.10842295663343,6.569105918535589,9.809915e+06
-41.230366090732474,99.82402425581529,23.799232797133953,4.0077508e+07
159.98070365740188,-35.92238738837867,21.259572644341734,2.0353875e+06
87.17262390946996,43.83850951389559,10.035619473499167,3.250929e+07
168.17586444462415,76.53722582790277,14.173965992631857,307215.62
59.72465587963677,-170.62186081911466,-1.9757184144432576,4.0877698e+06
175.01696640011158,30.22394764636769,-0.054657150419765266,7.2682105e+06
-110.35261265775495,152.78516799483833,36.08866550475679,6.470357e+07
85.08533074224727,72.93311805065696,43.30146444384773,5.905833e+07
-94.33712425324549,-160.27336243338974,45.40469063992773,9.950041e+07
-195.59101142614554,16.257687458488164,-0.31384490407657495,3.1821072e+07
-23.873915820450094,107.80696464994838,43.98736814509212,1.4338741e+07
-106.97874133929115,-140.6699142202018,-2.6467887430389454,1.3581081e+07
17.10919849231871,-171.44009394690138,33.15116694550876,1.1812476e+08
-129.57787855387198,100.00129028241764,-0.8777650088533129,1.0594654e+06
2.3638742698442172,182.89454116912736,27.186404606908845,2.3821294e+07
-66.77677206434817,-49.56887981950402,13.926700315103876,2.1382064e+07
10.145198812843546,178.25900442105257,-4.297198504076877,2.182818e+07
-4.849518028089278,89.4625089557876,20.438987200301074,4.3575556e+07
168.82626919329437,1.5890815269278846,-3.7384405957883344,1.6030845e+07
-32.2853258538662,122.8897007297603,-3.1895629010802846,2.1028934e+07
-19.409700263382007,52.30310479157748,16.745579637629877,6.752999e+07
120.38876377523115,-127.9855832934873,45.227022853340706,7.1322824e+07
-86.92016631566742,-46.19538672153601,1.4474828882756787,2.009769e+07
0.5130640311534194,172.9901634254138,39.931929544114055,2.5177422e+06
-16.140717648305383,165.81127025843062,16.557818344622635,2.6197882e+07
121.81907070002927,-35.79671386410783,44.78891720631382,3.6331396e+07
5.100487331808637,-203.5074716940246,-1.9441490896354656,8.596995e+06
-8.83251090491197,106.73783733206636,44.992560617856256,8.123258e+07
-100.83237092029859,-87.66378272417093,-2.496859242422764,2.401197e+07
107.31948923839565,80.9391118930701,-3.7107862483125063,2.1605552e+07
-139.17040074157217,161.3711795347702,37.286310042958206,2.8170172e+07
5.868802517885825,-100.99235696568246,42.72539078981676,1.2935288e+06
-15.688549151620066,-192.18202448880538,12.917954182321285,1.1261204e+06
108.78947529175088,-104.09417182864166,-4.049532475557321,2.4292798e+07
108.86589684072754,-77.81071641426664,-0.5876643189838191,7.351377e+07
-14.080550440673704,-126.83226158999392,43.533650895684026,2.122554e+06
25.85656340239413,155.64118433968622,32.57751256294772,2.9833434e+07
169.28194502631737,-22.937458815242707,12.10344480045092,3.145142e+07
-137.82782324542683,-17.92964191676984,19.906094652594867,5.0260785e+06
-52.96317355370172,-155.24124220628272,44.01640190341462,1.234026e+07
186.3990874051085,-26.717196549917247,23.03605681805369,1.3089984e+07
-39.141183538857064,-125.17636782765942,43.90322649301867,1.1944145e+06
-23.50716003746834,-152.92897859766964,47.387652901968025,4.8352564e+07
142.4170318253707,61.980230198587606,29.396084275799623,2.6730055e+06
81.76683102277394,-30.82362433655146,36.183756701639986,3.472166e+07
140.84493231845568,79.67189124879974,-3.7858641235337136,1.0272901e+07
160.6487550975998,-73.54814387067066,8.257166150035816,1.1792889e+07
74.76324689558356,107.89994881579338,41.93259298772032,3.955163e+07
89.09086342797167,-175.3036048803242,33.23927182322928,1.4125651e+06
172.9081871346911,80.84457185248726,24.55547013849237,2.3573948e+07
-51.05923560247035,157.324482318508,44.298161701774546,4.0727744e+07
-30.722441264542397,-107.63812544881607,-3.103152358140911,4.3553295e+06
104.39613475094671,-11.941032653397144,26.16213328292443,3.1517842e+06
103.68707484786927,-119.97946432119916,29.343499359084433,3.2152034e+07
40.05190361016946,140.5546159804009,39.05742869079655,1.1262344e+06
-115.38560401068884,-92.7770590451066,-0.8540791733336546,9.864893e+06
-51.37556987133166,-45.618682385945334,32.4643648392654,1.3394968e+08
-22.94942510422669,143.68212893814376,42.66944879530644,1.5564915e+08
-171.15086161628744,7.117485393072599,-4.1197886543972375,3.9452845e+06
86.76706618887539,-91.41068333218308,47.06929733893245,1.6654122e+07
-8.647095335024545,-173.42730060436332,21.532280872096525,1.1631014e+07
-78.69465813076829,-156.04601263992726,28.797006249027376,1.1414394e+07
-68.66856979798649,-129.1921674530668,21.07664406301857,2.1392654e+08
-56.48097937698992,176.23948552795395,25.806257427664633,4.222491e+07
-101.48849353008596,35.91972661017803,39.75919199804348,3.0077508e+07
-24.408403612309883,-98.1568632390657,18.413279083831185,9.288355e+06
75.74548381776219,61.6366635898944,33.40575814743364,7.953642e+07
-153.2124834072817,-98.50196469017251,-0.23706830683166658,3.2733432e+06
24.047456287329936,-134.5988567652199,-3.605167864896764,446557.1
-66.11924929629834,-159.69989584482022,-1.5349882467542084,4.2215356e+07
5.939378328905235,-176.71449617073316,19.002742813276498,9849.119
8.041677785833855,-101.70122805092953,6.660535849142951,3.784197e+08
162.6537134672023,9.34245179029088,-3.8158079186583214,2.5980746e+07
15.340581302740787,-198.95142928883305,8.776000818714625,1.0827693e+08
-118.93327633021563,-56.28535128798842,-3.761455110346615,3.5729148e+07
55.023468924652434,-169.71967836952086,22.337801803627,1.6020948e+07
-65.28689336161031,160.27656045987828,21.51310876215814,8.810301e+07
-10.202376666086622,174.2236069874969,14.094619455500201,1.2824993e+07
106.26391871902206,35.3537161116937,24.75328302359938,4.690698e+07
102.17967210184827,-99.17400137513474,-0.9883600011423939,6.324231e+07
-117.09652775257906,56.06789798828186,-0.18459819415281142,8.236928e+06
-118.05543943042733,-110.87922339783282,-4.805151637398441,6.755162e+06
79.4415064954897,-162.1640179774423,26.421280849920834,2.6819574e+07
-142.80259218311198,-78.9429655718098,17.04832993886074,792419.6
51.66640265209594,-118.99866196879539,-3.96716020197708,5.2840508e+07
-80.972109185822,137.22363560908883,22.54652372391317,5.0111628e+07
10.625563293523243,178.4620374218693,28.612800134934538,2.7387414e+07
68.26863932923993,83.09154983039673,37.1501943287904,5.4606812e+07
64.90061545633239,78.78632153119395,22.886212675078355,7.4218936e+07
42.627929504385065,-86.96602846225551,46.30352906568551,7.300616e+07
98.05162308430772,-68.10270857541025,-2.5316098904047486,1.8867302e+07
-31.16211130391821,142.35712788449683,41.48459353884722,1.1291844e+08
14.030121986518196,114.0005827665679,-2.641825167097194,6.1893268e+07
106.45317864811551,-134.36243901049218,45.36490857470632,9.789321e+07
-118.3095844447818,134.02700839285507,9.098556633531565,3.1434528e+07
-71.18402079850426,126.60075997626507,-1.9104912663614573,2.7530088e+07
91.25730871070897,162.23317468700475,-1.6698312131266424,2.9228892e+07
161.0122666805899,-65.03857912786268,16.26071169317324,3.6377402e+06
-139.8457868860117,15.558200471557114,43.49175948791293,2.4793102e+07
115.99965125857057,-95.24878348615881,0.10455563564802972,6.1734625e+06
-34.45514932459619,-178.5928416041589,47.31209613851904,6.7539645e+06
159.53142422587217,29.037697565782707,-1.8839209690187273,1.5730111e+07
-81.94130380254481,90.4737209282979,0.5760988146507229,5.9170104e+07
78.47891484146072,-116.04260704945592,-0.7379774481514092,9.997541e+06
-48.653378654420095,88.33665713413183,4.608169475039503,1.27721304e+08
33.06267315988464,168.32280821420517,29.23497563543944,1.5766484e+07
19.349484550456765,150.95267255196313,-3.142022899657565,3.549641e+07
138.72258695805954,7.93548393775788,-1.045590577560925,2.497014e+07
131.2722020666676,134.57207100188418,44.058117040452835,1.7552252e+07
-70.7768493136654,162.6486464581851,-3.6902999697472976,1.0707208e+07
-144.01248214658176,78.34369704778805,47.07616867492737,1.2556236e+07
-28.782577163125552,-113.56910278530607,9.485182029447962,9.424285e+07
58.46617612450012,19.475268998122232,44.761828967572114,8.974208e+07
-44.04507109186221,154.44605313994066,24.28668743911621,1.0431204e+08
-4.531780561168944,148.04925530114735,7.7871846299754335,4.869929e+07
-4.501220455571968,-135.90644416256222,42.55687011900904,3.4880745e+06
-71.2912682860682,-116.82711911876312,43.84974033366075,1.4097805e+07
70.7333256892394,90.19286245211197,-4.51364409594665,5.6104016e+07
-114.48524629615157,-105.77764380793073,8.436239421308901,6.3311976e+07
82.93087555542985,-95.56373847741844,43.52049443566328,6.94383e+07
11.88787809563857,-105.28230077725601,29.481585828691728,1.1069211e+08
160.97829106950599,-33.02970923076205,12.18985925191144,49921.684
23.369431773132476,174.99387358503395,23.171630150365516,1.6397867e+07
-79.80052793366164,20.081547158564945,17.304642035949698,1.8740094e+07
-60.62268650757065,-57.61143529185853,34.94663368042746,3.1919222e+07
75.25630997322668,84.67156575741188,16.01202691997703,2.9829002e+07
199.00397179694744,112.40752992744945,39.83208768482011,138857.94
-113.0390969069357,-96.57921742193504,-1.4028845980894498,1.3556137e+07
-114.21965843171976,-13.30685670066535,10.708421141975961,2.1040392e+07
25.88169365704917,107.64862269648091,-3.4867255390209912,4.925645e+06
101.77506562661364,-12.178313989346208,17.354488837857716,2.48305e+07
44.4486804885957,-103.91027105534836,44.99281847039536,4.1990044e+07
-75.51921437031012,-141.3191299405361,45.02001528588696,2.7381288e+07
33.19709959712719,-99.96889337131813,-4.452793169677437,2.5641484e+07
84.0750169515673,-147.8221665781757,-3.965778206659886,2.6212134e+07
-48.1866314865338,-140.50804544492743,32.504156462293736,2.8060282e+06
-172.32915786455834,54.30285408829542,30.199314839510485,1.4926801e+07
-142.88882984515294,8.949142708281073,-4.652883319694701,2.1750236e+07
181.21805969961662,28.590439883038556,13.322897124469854,4.014469e+07
-183.25623554302862,15.267466512468161,14.8723851642468,3.526095e+07
-204.72452523115476,73.68423755114588,43.01662632995238,1.5981407e+07
-75.22373291681382,-69.33474263298157,-3.314505755253987,2.9300258e+07
-31.103746457911484,91.55724665944513,23.00549590048685,4.913397e+07
-1.2877463263343145,167.3870363432262,42.6961146878284,2.0740098e+08
122.8104936942633,134.98840409629986,24.92090476758195,4.395213e+07
-80.97072583400956,119.95500433416555,43.20982911896884,1.3660146e+07
-127.92762847738172,131.06487263816473,18.114432297985065,2.4549764e+07
24.73666189617404,179.5640101991183,38.93387526229753,4.265805e+06
-177.06746888067104,16.261478108449552,7.806323143980482,3.820088e+07
111.84617568140328,-144.80426088753018,-2.9161962219926774,2.2182506e+07
-103.08244769595696,-86.05849706452065,45.72806736818776,1.8955056e+07
93.21145923166495,145.52580350406862,44.03363030708344,1.4971051e+07
-89.8150892144629,-150.605613596953,-4.777440776229906,5.6504905e+06
20.281075385069897,-180.36625317674716,-1.9632966000775292,453223.8
19.850867794053045,81.28824359784164,42.98634162487748,1.6173954e+08
-146.7991372470184,86.99967726816044,-0.27382184255546793,3.3464144e+07
-85.16022932480377,150.95804587118624,17.710620836479112,4.2021516e+07
-6.148621436972064,-184.81286902607656,17.69325481523261,1.6633826e+07
127.37196787010845,102.92279651918835,-1.74068696779467,1.425381e+07
-75.54807221035597,50.735194620849995,38.384806370987654,1.2006371e+07
-61.77053135230872,151.79210426374397,23.134065062616575,3.6503024e+07
-113.44989178958862,-129.30344371265588,45.25647461793974,1.1667213e+07
20.92377834130653,80.63353074267081,-1.8799363534381124,5.230318e+06
31.928469836513216,102.07388639901387,25.900446187013465,1.4145157e+07
-143.98195984685475,70.87541536853871,24.90907263564808,251145.23
9.47203793244205,-63.36156327516187,29.60395614557727,8.4539576e+07
97.0358903835758,-9.584288667231704,46.61973031231094,3.233766e+07
-38.381427947477874,-143.12573013722044,29.61693424210914,9.917579e+06
140.51807001873863,-67.28712391201572,-1.0141751598344912,9.175069e+06
-92.37908784207727,-156.67258672084967,37.32133958558821,2.0844806e+07
118.48903520456975,73.6020718091292,20.46406231486178,5.6078084e+07
77.94790424087103,-143.225340395381,32.769005253536164,1.3114608e+06
97.93086875903089,0.38842315646957104,30.237162265940576,2.8612574e+07
-80.89871648483026,65.73592555043001,44.30480189372028,2.5837092e+06
-155.23558961403344,96.53577121995721,27.721459504633927,238330.31
-71.17033811785811,124.33478752386537,-3.9145661712260704,2.5144632e+07
-94.65300844016257,-26.34689608928113,44.47545851440964,7.402361e+07
-84.53481664561528,169.8710835967559,-1.0580309893068778,3.7549492e+07
76.29985049172751,81.08107773778386,-0.07894061672828201,3.811394e+07
40.67072126997428,-191.6480237383771,3.079803907196622,81753.56
-143.1553596661376,117.10704760635349,32.63050876758807,2.2165882e+06
49.608401115903746,159.59344936603634,37.68051983129092,2.4014186e+07
9.212487798314669,128.459436560219,47.16582512049262,4.5075827e+08
121.52153267786258,87.82780684362467,45.18444158479939,6.79869e+07
48.57823086097153,-109.81173307719148,26.864707046551857,2.800467e+06
104.48593823723746,33.26000624373333,42.923892057412864,8.3296505e+06
-192.38373848344088,20.714162824775542,12.827439753380514,1.4137905e+07
-98.12549970313862,-101.08547287674281,-0.5078091976562424,6.627311e+07
34.32529506043767,-187.63534749126705,35.468529935090814,6902.9736
56.503003148203504,-79.46110380011476,18.931318848795723,8.3777944e+07
-47.82124951998253,-187.96376956197756,32.961569643535356,2.0760822e+06
-116.00315827815147,126.84309441693773,-1.9190209156793032,5.896755e+07
-117.90618930983968,-74.04928292949373,46.465133752586645,2.3832698e+06
111.89795297499904,39.50027300390073,-0.11409638130753752,2.3294524e+07
-135.81959671364024,49.56520265185583,20.506839640364564,1.5721553e+07
-142.6413683579203,38.98707172251824,-0.9834763575196765,9.996847e+06
-153.5672537297145,-18.541394746592715,-4.542190595960692,1.5501705e+07
141.67076531129624,-109.14496933604983,35.86735333623329,7.2777205e+06
-20.301816264443687,-163.7724821099859,13.766667235911225,6.869138e+07
-90.06341255379678,-3.43670129967461,9.08428736736238,6.042045e+07
159.74049443940584,50.73561756227821,9.771779887905625,1.123194e+07
5.626384271006856,150.09183719660967,21.42738635918347,1.0543323e+07
46.27030457992339,-56.052831838501305,-0.9020713535474041,8.099921e+07
-165.93924374550056,-67.70143369772569,23.920614409402305,3.3451868e+07
163.85594122032893,62.94231914997454,-2.0132711953203897,2.048298e+07
122.33929956597183,-125.29609839323444,47.46045465827733,6.718324e+07
-13.779354207079336,-181.07931459632246,31.531199362620008,7.1223815e+06
57.48172688821995,-144.49252880457706,27.518889403715207,1.0058621e+07
-133.2117537442374,55.648527331527134,-3.78024362195037,1.924732e+07
99.03156591724712,151.72938808836125,31.01875535889959,1.6978124e+07
-171.86960928504894,-91.9748463599678,20.6576298621025,152383.62
-50.33107303428068,-43.262612706121246,-3.1891406013605397,4.8548304e+07
-109.80614808276104,39.99140880328025,43.01879057001383,1.6235013e+07
-176.79740106547678,89.70747759556787,40.69623468475822,8.2950535e+06
-154.98707321965986,107.33868887119837,15.506130590992385,4.4300964e+07
16.019109574539584,-140.60986018543275,-1.972944465307425,1.6359291e+06
72.4910828584878,125.38691870711625,44.76238365113868,1.0108141e+07
-71.16856835046448,-61.88083549602575,25.641375492254056,9.989476e+06
37.36271196867014,154.41018318339064,8.282133571138877,5.0325755e+06
-13.65081911421936,163.26875682383678,44.54597508825126,1.119614e+07
35.961512010234884,-184.19345875475545,43.574045007645324,90204.77
70.89775632876251,-94.12495474202954,45.77008743831712,7.500794e+07
57.93995672778988,156.0456405401195,47.16098510725195,9.112448e+06
114.11300981150282,-138.72904219190295,43.778440072653034,3.51354e+07
158.83418533733868,-84.28868688640682,43.23137933613961,4.8881395e+06
-49.52880612087907,166.2831919218812,-2.926436387407316,4.598789e+07
37.1974857745555,-143.10890926367128,30.574019831046968,2.1787818e+07
-179.16263827221835,-10.151849757486474,41.10943404703411,5.1353635e+06
-163.47234382235112,74.44602062231536,30.56449805858282,319694.97
151.00955007470424,-119.82420676162815,34.73163025524709,5.0164265e+06
102.19264933763287,-139.78439187482303,5.216988135389613,3.25272e+07
70.67422869202085,94.82650416028275,45.49485824000805,5.6006864e+07
-55.79508375597291,124.22962273993687,18.27573335280774,6.2523736e+07
-138.59629510327358,74.80474562643121,16.387642436747498,5.812521e+06
-105.25721525645474,128.8054151226055,18.247121285855354,1.2507692e+08
112.87837962837284,-21.893109526195218,12.944006669307388,2.097887e+07
78.0892625652624,-66.2010160400784,16.34840169237934,7.979456e+07
15.755650731212995,-188.12471452726993,37.9968948988998,8.276327e+07
-2.624227084631059,-81.43406221136831,23.42172375085652,4.5306344e+07
-106.7129152109581,-153.77922632405784,32.744924279450515,2.6027862e+07
85.38895640405946,-159.96784819971975,15.784060151105557,3.2057942e+06
-162.01560481432068,-65.42202217927573,44.225989682326805,2.3025034e+07
-105.21386003449763,124.47426643118229,-2.365173199587155,5.5551092e+07
55.226250156810636,-71.22796929112079,38.46302885733402,5.3722588e+07
-114.80694210164249,-67.22099410055594,-2.3550742952433383,6.5435095e+06
79.97578201971555,-141.4040748004189,28.494537701205935,824489.44
51.39611478043514,-77.71315317322825,27.091127574123824,3.1302058e+07
79.94287573649575,-156.04847564309637,-4.319118671387333,6.9704344e+07
-143.41092914548585,-99.06444624979963,26.442157331440598,3.3138668e+06
127.90402549764309,63.21769070219392,44.46442471800188,3.9225755e+06
-0.21215524432093957,-105.89886617289453,29.262551634556566,2.3408174e+07
-125.83870126632573,38.657931464930215,43.168099414753904,3.0853998e+07
48.60550882383683,-178.16864705529426,31.591566294961837,1.759282e+07
-147.1351652488952,120.83841742759739,13.546991196964754,4.7169424e+07
37.57613773363701,108.39968537371266,45.525499564728236,1.2488304e+07
-187.91992697140546,68.93192580627522,28.780580364489296,2.077183e+07
-60.02222892067718,-58.795899198004065,43.906543810209435,8.061845e+06
23.353857740773776,-142.701518712673,45.563193778681665,3.6577875e+06
132.09509716288045,66.6082454340198,-4.434916805237659,6.27669e+07
-29.40397510755284,-99.20529627879695,28.380593907079813,8.758611e+06
112.43116690226873,112.66165595816375,42.75541848677026,9.278838e+06
-126.57571026123966,136.4979729643963,2.166556796638063,8.043604e+07
81.53877984499985,-109.97948386139876,-1.788668187213995,2.2175998e+07
-95.68680899202268,43.38866051035541,44.5013595543148,2.700259e+07
-73.933226890286,-166.77000197444056,33.28326911203793,2.6539194e+07
67.3710638375656,157.62827911126584,23.53398804182591,3.0181558e+06
17.029564852469065,-182.7806847184868,34.95742668959105,1.931054e+08
96.255623111587,92.28134785833419,-3.4733016594415833,5.4804668e+07
84.14360397254802,130.98238254558913,27.011433166226134,1.7502264e+07
199.07840662201022,4.062862688223987,-3.4299816097455427,1.1138084e+07
-105.430132013194,-143.3786733491776,-4.858104691883685,1.2002331e+07
132.1049305326822,85.23075516603097,44.778859250260936,4.6258896e+07
-123.61933892835047,39.56403821663042,3.4437706438654505,1.0769993e+07
-144.73021665953593,-13.857154069662329,46.93325154203686,1.3719083e+07
62.794561376874015,79.9694254545139,39.67029762016598,3.8617612e+07
-37.090272435289904,-99.4419388881179,36.396249391582884,3.1385208e+07
-91.33630777341945,118.49787396485715,-2.1547156218285317,6.04447e+07
98.73505738793875,144.2311225278251,46.213718994269016,5.188184e+07
176.4395152868226,-31.865911259060056,23.741817475915653,4.2159188e+07
89.1159918498206,50.64428024515411,27.126752280327608,4.116071e+07
148.14997418097005,19.404651010603914,45.4770967964784,9.788759e+06
-123.09427187845083,-25.526776357909625,17.729134501185477,3.5037476e+07
179.66070027038575,16.715611678236684,29.16945181673934,2.3626744e+07
-133.71043207876212,-89.77990029893705,-0.7073321644926214,1.1317486e+07
112.5310784577922,130.3178122440238,8.351894012924497,2.453156e+07
186.4327827362547,-22.25363535240632,9.316873013169605,4.227156e+07
-116.89803040916702,-138.38350817824625,30.576822439934816,2.1691874e+07
-177.03731987693135,41.72754116915104,42.243210603284425,3.0642262e+06
151.38583686086145,-103.50138189268412,19.745378540285355,1.1294894e+07
108.34208948016004,-32.21904438893873,20.207705255877954,9.1769e+06
-67.39586903442819,60.842368195046504,31.10291397017155,3.63494e+07
-178.1328078691143,29.027896908820452,44.932914315637866,1.5882988e+07
-36.41764908047591,-157.77940315855628,-2.8336296288669836,186314.22
-83.19158519242515,48.77188180395552,-3.207916896997438,1.5357672e+07
-86.16098765427813,4.098795288092447,38.69472955885608,1.277182e+08
104.04326483167443,142.71144094287956,44.12884484576657,1.3464707e+08
46.82010341157195,149.7024897053828,-2.6177184851526265,3.5564028e+07
151.80944343958828,104.71037460536974,14.363834982779807,1.6628602e+07
153.7283384078911,72.37741418458819,3.2428509560834975,2.2024492e+07
48.114156861092965,89.65935232646711,26.3543262607363,2.66618e+07
-6.62510089542468,124.0065343404413,42.94903924110743,3.3061074e+07
-69.75779025349192,-151.23484817617503,43.62392381816383,4.1656855e+06
-114.63948185552621,146.30082338241283,7.499264912991343,4.0027092e+07
-119.09007327472138,132.5272818769431,16.616462845978127,5.8201428e+07
27.583689287665806,-118.29674171051452,44.79217954585056,5.7918815e+06
-109.5087518706855,25.773844757324184,-0.8980403778467654,1.228617e+07
-153.75389018084553,112.91945561696451,2.0683540404500906,1.0479179e+07
-124.13829257673686,-120.72279555559938,-4.414195596224647,5.9387525e+06
-149.16232055320478,78.42623741415338,20.270331390584346,1.3206049e+06
-122.45130378990778,-36.030048999266455,-0.1886415779269619,1.1862235e+07
13.701361068010186,-97.02941028843411,43.67429496420695,7.759384e+07
99.50906193661763,-29.97140154163995,-3.073575624866025,7.4128104e+07
15.023322306231677,128.13671115943436,-0.4688135835788154,3.1577888e+07
-158.42809236002307,-85.97937765060854,31.02057134241808,323581.78
49.09625910207194,-149.8952940379621,42.62355174170757,3.8661935e+06
138.089068805257,46.511755397042066,42.713977600413884,1.9001118e+07
-110.617104641509,146.1644170785426,5.37736174071852,6.2025964e+07
71.14469819024026,-67.0272167464075,46.116965848380495,3.473671e+07
33.85786610915923,7.462022972800753,39.61737561972743,7.635915e+07
165.4229031251279,1.7401573611935248,45.153935723180446,3.9770772e+07
111.34518625082637,-79.6386339053937,16.81801556523843,2.2589298e+07
-107.89109515776812,129.82692654977558,-4.577990778358841,8.6915416e+07
-134.50095837988837,15.043623609407348,42.14060174024583,2.449614e+07
83.01384929369306,-56.69935033097022,46.74191153120266,6.845151e+07
-84.3415274971735,39.22853947036927,36.142392853928854,8.229763e+07
-56.51442201822411,212.2002035530548,24.718945211256273,2.4648374e+07
-18.577119168704456,180.97405698952315,19.004391773921856,2.6362156e+07
-48.73524968490503,-94.66851134897021,22.261632619640796,3.074909e+07
-96.98174937442069,-127.65814063429565,-4.0300204897071765,1.0813199e+07
110.10469630519242,190.07256432659176,31.00009029293011,1.637284e+06
-86.147530585217,-53.77228751634544,26.53804003144688,1.1292211e+07
-56.22128365299696,-109.58482620598843,-1.4290139815545793,5.9692725e+06
113.40670804735436,23.76331994661959,-0.34427226221201934,8.860862e+06
-158.5895860030571,15.907389278774758,27.014157574098952,3.0229866e+07
149.10154757734637,-42.89633731873542,-4.506917648656046,2.5543524e+07
145.33080694365822,-29.82081306733042,-0.5980019476788296,8.473243e+06
-74.4878312750472,-118.90072795170809,-3.323757235342061,1.6809646e+07
168.5292306637706,-61.91014130382973,17.43911911921482,3.2158708e+06
68.03981637767703,-144.53886814113167,-3.34907600392146,4.6022904e+07
137.9688407099204,-89.93567176110372,47.09594218837438,2.0528404e+07
-144.14081360438595,-47.05395596529439,-3.465369789122238,9.741638e+06
-80.46080698962817,120.92957287338538,-3.409069733948431,2.2830068e+07
183.43134753126844,18.8423301844183,16.575289306985177,1.4836467e+07
-92.9531223117491,37.86767041236931,-4.253320186061506,2.1020296e+07
-105.11143864328774,40.070177352066196,-1.0189538199331558,2.2357656e+07
181.1698288560367,-51.35167869118891,44.96217833397822,118570.43
78.48411005011718,164.54572488193276,8.477040250929651,1.7928842e+07
149.18351123914425,-11.973092061078376,-4.322939033858637,1.292634e+07
183.37747577071082,57.19178006076987,15.89145559063708,7.697896e+06
-53.520527670978225,168.47002445891002,12.912794028771433,6.457437e+07
180.08442034671066,73.85227731114821,28.111070103214644,6.669951e+06
9.72919556673591,113.64842991271519,34.08147716337392,4.161262e+07
-48.15180627242293,155.09959000838967,13.677485071031889,1.0089082e+08
9.906027445195946,115.458841972865,27.725850388921366,2.0900084e+07
87.96078360484705,8.074934708557777,3.5322602437181008,2.0892972e+07
-103.90718668358718,16.702978057523694,37.28171857706082,3.7311336e+07
-15.513314019536722,-109.10651294177728,44.8218261663507,1.0157199e+07
-41.902696873872884,97.58411536951343,44.574185327825504,3.718616e+07
-142.60949592754744,-114.56499081575275,5.461884730311855,4.0775675e+06
20.79992675231125,-163.03103557105734,21.208429680945738,964304.3
78.55209642050852,56.06344537847946,45.877334007617065,9.856866e+07
111.25493661396456,-7.534347349008897,15.74395115280673,1.1062004e+07
-152.11647732007052,-6.194350464351487,-2.14100864565507,2.40016e+07
18.518369242470612,168.78171907378493,20.330741307721063,2.5255162e+07
-33.595466290429016,-97.24475650004618,35.163724178492444,7.914392e+06
-10.068219096734595,95.15616904996818,14.846910987138838,1.1387443e+08
-122.39537038877361,-51.045151064951455,45.29820329791407,1.9966688e+07
8.520483634431173,183.40137812902958,4.764028156279304,5.800627e+07
164.33541472334366,-85.91097425678578,34.121259033454066,4.402393e+07
-154.5767840050399,12.949446663302751,3.899583004591703,4.148538e+07
61.547924944714794,-89.88978914560086,11.16354554652338,7.936448e+07
16.799268228846444,-169.4264256498908,-3.3076830781353967,2.6943935e+06
85.38971085172756,-156.368775991615,37.16533973577535,2.4874455e+06
-13.954414998955343,-138.97526207327053,-2.629381225845276,3.1087376e+07
97.2237257155005,0.005169343224025624,4.999827790584467,7.0685825e+06
31.659828412792194,-171.52328593051925,29.720383518439675,117647.0
109.05995908764771,11.966517709962346,33.40768944197713,9.13048e+06
-181.26630655786698,8.492434189277844,-0.8662362859037493,1.0881746e+07
125.23241112678886,-113.61610082466301,-2.6228638870519125,2.9395955e+06
11.80580756203969,-153.25838357360908,-4.588014468148279,9.326862e+07
163.91480555513283,39.372352749040886,-1.6537278623732297,1.6981604e+07
-90.17264194342648,-46.97880300326969,8.62248898840093,9.551825e+06
-56.94370686212375,-159.49865002014027,42.8773957806732,8.037189e+06
-121.08793400944148,99.5779981761928,43.94199976104145,2.9463482e+06
88.5626153617834,38.701634061518945,43.7869518821958,2.8196072e+07
-104.31922547194728,-152.20654684327948,15.775180601454121,2.29744e+07
33.562176056781624,-202.63542231372782,29.731372576463393,4.3653584e+07
85.83398074223282,-113.66860801634077,47.10705457854359,3.4873932e+07
12.807235875213735,120.14218052261151,4.842430317961085,9.159116e+06
7.755524008541897,125.93241244036238,19.122091965911164,1.3931444e+07
156.19788239266825,-64.15918642236548,20.482378724395854,2.1710984e+07
-143.24306282150982,4.840009460487693,44.93477117309838,2.8463506e+07
-90.57032765019866,-53.66401335604016,19.703804736638904,2.4461266e+07
175.36173979120656,23.738037069995016,-0.7604770142379298,1.3389877e+07
19.07384566797444,108.03689682289729,44.1663093570699,8.2727224e+07
114.5874052197222,-103.87476148175683,45.50443366987585,6.804457e+07
20.614364193800725,196.922824046531,33.724247911115185,2.9412712e+07
172.76953821970028,79.54279203723979,16.702725977257398,104444.99
-101.37548816087666,147.1743840249651,47.290399600271165,2.4812176e+07
63.96919913219773,-85.02313165851348,-1.1215917983513903,4.6614468e+07
133.15253038242452,110.35716175658007,43.39952700530446,7.038364e+07
19.326839450589347,-188.45414087243873,14.840559887102415,2.1152998e+06
60.820311563358246,28.85746890637003,22.481709853907773,2.7082712e+07
-74.06785102813171,-165.63763560184861,14.825384791568464,8.742061e+06
105.56822904953361,36.97775936728331,20.16975122970868,4.0792984e+07
-15.050091777592286,-190.22485292456471,25.455543629782543,1.3589849e+06
48.83536554919476,-176.52046768219162,22.442577894248775,7.930161e+06
-104.07599713357669,140.1277982220392,45.20863503368607,1.5494263e+07
11.044065373738647,140.11036733561446,-1.2654273615100693,3.239876e+07
-56.733700293212564,-122.27663900951651,-4.113976964610927,8.548703e+06
93.15823334933901,55.519579171917485,38.8074456281772,2.2269748e+07
-163.46625889099727,-65.83747586987485,45.276340129948295,2.758999e+07
137.90649505914945,-116.99435138674158,-4.8046952397939675,268419.6
-129.4654224935491,-119.60337660935545,-1.3177867512375947,3.7013716e+07
-19.368563121824934,-197.75078859153473,25.140886310952446,12920.305
92.6657089925124,135.6669199381828,42.68519715580016,2.9985506e+07
106.78778966791072,-24.093716027848046,8.818601546111575,2.0852069e+06
96.71609202731486,127.81785164693008,43.384619836306975,4.600111e+07
121.65633606958488,-84.91994223213644,19.23741795200124,2.2033844e+07
-127.395374668451,25.02754887877373,-0.872992879247354,2.1270246e+07
-84.3572205121194,71.4500415389204,24.225553461578723,2.279034e+07
169.04196636084174,13.765348319462987,-2.636157153287148,1.3563843e+07
108.2497624529675,-142.545138034595,-3.800528774113105,4.808596e+07
-179.37329247974586,75.0206099843652,9.81065543588066,1.7377856e+07
-91.23968758173245,75.67886774383885,42.64920243278676,1.2094663e+07
98.27492518664553,-9.799796023165953,15.581626612401251,2.6128284e+07
154.06811784749806,-93.21329913630092,-0.9819605089382346,3.3627304e+07
62.481371037046074,155.41403233333165,33.00529264902798,5.4857015e+06
-109.41450703965334,-143.6204079545279,17.665825130634158,3.1206536e+07
94.07676583593184,-114.59216177721638,-1.663661971861064,2.2987182e+07
-178.2071249956029,-74.58759502518822,40.69833075568087,1.6490782e+07
-172.9862647877021,32.20149460093265,46.854738650782885,1.1330911e+07
34.57973074789453,-170.52572817979205,37.152993552549724,97172.766
117.01744535964974,7.145657713465084,-0.7697101358565419,3.037707e+07
185.88783565218444,-5.983228245362142,22.60292903484671,62911.31
106.78692522647975,-41.545343214347724,15.63129163618537,2.2980588e+07
-145.0579825983948,95.17527165171413,10.082774876459565,2.8035434e+07
166.97947999081129,87.10319222018768,27.310540231501825,378045.53
116.57131410225566,-46.14849200846288,27.408224032333095,5.3828388e+07
13.165935741834147,98.97141064057479,47.44147918727794,2.4512694e+08
131.98832057624168,-52.082178641900214,43.44140300110353,217054.55
-70.98741873102679,73.84800994079336,44.154696017758745,2.6027722e+07
113.2335778613774,-101.37750524231087,-3.8852687237068038,2.265493e+06
68.37036416458977,-78.68235070351531,44.62163888639316,3.9208024e+07
138.62334485653747,-86.80681780580474,10.287473870555091,3.6137244e+07
-111.98368922379498,-23.64394779055823,42.70064492928015,2.0009108e+07
-171.63268726528642,35.05679820736819,-1.498322525207099,5.017743e+06
-20.64163435234326,176.76085469591914,43.09716379631342,8.902027e+06
-60.68032301608528,-10.253611672653875,32.69129095203002,1.7805608e+07
-93.40379565523807,43.12724756235667,36.696946963307845,5.3230936e+07
-3.459174239352052,130.1383330404525,7.176930794608451,2.3699782e+07
-84.45048462350334,16.27251282133986,-3.2615496014001053,3.03016e+07
-20.830202685323314,-155.7914335407916,44.588179001748166,1.4658029e+07
171.7626626721796,-69.02452950456424,44.462331198462245,9.641602e+06
61.42958610885029,-113.29026348479488,47.08804437892278,1.4197486e+07
78.95736671862983,-137.25960811910716,0.30388992790609226,2.7282938e+07
-91.61835589507898,-67.63990952537367,-4.949433804827389,1.1684371e+07
-112.32339119030937,51.90540498124551,-1.1507217138509072,1.9949126e+07
-55.049884599607,-59.69400337150387,-0.4800749344201609,6.548349e+07
-116.34684333354308,111.70445515229932,20.44130897164669,7.791443e+07
199.71238505583483,-7.964790345625545,-4.4390169952153045,8.557089e+06
-11.046947428236251,199.66522194066022,-4.328139873605593,6.8074184e+07
-9.94757205989319,-177.96427093351974,26.1399236791001,8.207008e+06
101.34927884863555,4.649586315943083,-4.871296376218303,4.3362184e+07
-107.94768947974804,105.76118731262216,15.10132587275848,6.917781e+07
122.34038241549382,-107.64928534939942,-0.8351439620016166,5.6264395e+06
-163.8453432309138,33.91086199390253,29.82837788937953,2.2279825e+06
107.57686316289028,20.8446637622626,-4.392575595127442,1.5920229e+07
-103.71059155448214,0.23829859842700785,-4.274715450392995,1.5693339e+07
66.22367740032911,-148.23807538951837,-3.2369442982530368,4.9608584e+07
22.195829487185364,185.8187540848739,-2.9416524793491488,3.470503e+07
16.449949727329454,167.08881298865816,31.76880111781685,1.0192758e+07
7.722675092311761,-118.04616939847948,19.79644136774776,2.794285e+07
125.0976575017608,-122.02805079208517,45.33310063715529,8.064564e+07
-52.36211253275255,174.95910571695794,39.34631451135671,3.9598268e+07
-71.16386088716811,-110.20956485013313,-4.460457561449772,3.7556096e+07
71.54991708501672,-116.26842605334714,-2.2288077959785695,1.6824652e+07
105.61160400280522,-14.277404111168778,-2.3696000694381585,4.0723748e+07
187.90209994248937,14.307477454330524,21.379332137275753,5.516701e+06
-16.6602056855765,-87.53103020697309,0.08164075486798605,4.838646e+07
168.75119386153,5.163507876124413,-1.2634446305118048,1.5952414e+07
-102.16750660399727,-34.570808154537275,45.443114418622876,9.976065e+06
-119.90088482281219,131.04765187004313,13.691332546478243,4.403828e+07
-149.86758965022676,114.26582378664529,46.17002210211761,1.6127682e+07
-158.20151734443337,77.22914352352308,-2.6119991302009753,4.015831e+06
147.37828269582047,-77.89007518029806,37.271569320522865,9.992318e+06
69.48890098579176,187.3105913723154,28.315835894504097,1.3068796e+06
-168.55345108823252,58.41495015941939,-0.29040487358793854,2.4842638e+06
-153.19339546966847,57.008524503682054,44.587500691171066,1.4722285e+06
-91.80709896375772,61.97987277173365,-2.3971831162805874,4.484119e+07
-68.6255570536508,-68.94461330069313,45.823686707816805,9.629362e+07
-4.135184998165414,207.51199478266926,-1.5415982775920107,1.3449805e+07
-97.61986329851055,45.96495147711272,-0.7061128166299895,1.5115282e+07
17.4250238490863,103.62511876072364,11.649428510507477,3.4350344e+07
-77.45463666598991,29.280576274201508,-1.110273287067061,2.5288808e+07
92.91240658477568,-35.130122865473965,9.70474145106871,1.4752481e+07
63.99441893349035,-130.4836410072475,41.22788239128262,7.418512e+07
-76.76678409993156,-72.47403799707217,42.84790314464308,1.33995464e+08
-78.52811368975617,101.62521315968633,-4.0290432341797855,4.3742e+07
32.53635976908075,-174.75733505201612,25.197201358058194,1.812576e+07
-61.2070384667185,116.20341177197389,-3.5393135819584667,4.4979292e+07
-96.72364204048343,156.40699810968835,41.46498501197244,3.1880262e+07
145.11667319364386,-92.71964672404873,38.030410830471546,6.821545e+06
-64.531911019809,128.11794753413585,42.50457750804372,1.9003906e+07
-59.80908904211162,-150.79025159882355,42.64238221443239,2.5027095e+06
122.62884945622153,163.89074815962596,14.380897874612987,4.0410124e+07
-55.872694908538875,80.59818241326525,-1.080959305712712,6.1297428e+07
-2.657746101578141,93.88215922899764,14.64660414415711,2.093432e+08
176.51829711966036,52.659086814589784,8.824839325232311,1.6618267e+07
-109.83384538843366,21.584048324004442,44.54347263698018,3.1098572e+07
29.64465122553858,113.80705756074434,21.955777180823294,3.90096e+07
131.64821381974429,-60.50788956271879,-1.6611892900744731,1.1062228e+07
144.60769145025142,112.40323645033163,45.98347844377326,4.707553e+07
-47.020233206541064,-84.83524624893107,20.195955203094332,6.0420308e+07
-153.89746588190084,102.00938178075779,17.384234960275563,5.862893e+07
163.29560657987736,-49.98544379336832,10.756051204077936,4.8025575e+06
126.90986878392425,-6.23178767146473,44.73485850916321,1.5136352e+06
12.578381895802096,-80.90575950185283,21.104114569783547,2.2309868e+07
-110.63046890937675,-114.756938730976,19.035978549066833,6.874853e+06
7.5124853263715465,-213.85973747716514,-2.249206138803452,7.4927575e+06
-73.65795337613528,-90.59062960946582,-4.0221305767756785,5.6389588e+07
94.96799977750885,-18.745422727635486,-2.724683410004602,5.8161424e+07
169.4743232327927,55.29612947325654,-0.2859425939131892,2.6349678e+07
149.29851223583512,-38.694435551244794,43.93462228622227,2.327308e+07
-95.47563763715803,19.816082059439054,17.59914767737937,1.2435954e+07
182.24633323891243,-21.31015681478192,21.41652896918237,6.3265384e+07
66.35410097205875,-143.28928040066106,28.5831220837905,1.2423483e+07
-62.24118476340439,-99.11881582826753,20.942268221573915,7.50813e+07
192.25918889811965,-52.44707447721518,27.215979202393335,5.9981235e+06
-24.4377108292571,160.40086612873614,21.622136987516132,3.3648012e+07
-59.23137915166518,-130.75902362240623,39.45263501193213,6.109833e+06
20.428605847184684,-170.30463890446958,-0.9491281869614232,238472.98
-131.10538608820048,105.51519716896166,31.801529995582285,1.2553143e+07
113.21970399873283,-148.42420666145844,23.945194790555366,5.8230116e+07
-99.586616429807,-3.6921117769285274,46.66593282629174,1.539735e+08
-157.63891293017628,76.76521569365673,44.67946275202551,8.714611e+06
151.53587145970067,-105.91692890436521,5.541342475101715,1.3422705e+07
-163.50235944892523,-36.55883887803299,45.09771898668243,1.3500796e+07
-7.626761720443568,-165.8404490785065,43.90400699297506,2.165204e+07
-75.38334333012705,148.29247098179422,26.032678579417297,3.1332404e+07
-3.5750243440279235,112.70841844575142,44.59427210952475,2.670134e+09
-22.51064939904117,-101.62584205516104,42.860451502131156,8.1015455e+06
83.7420981505108,46.919340583544624,44.426694648493154,1.7237298e+08
33.56817115091849,114.2655411873859,45.32731654173918,5.0259372e+07
34.38452787716551,182.47182828033857,46.75577188536529,1.1607848e+08
-46.98882633554558,-164.0076382098656,42.99568887456293,2.0965038e+07
-10.573329492202873,-119.07053862464052,35.385628645823786,8.026011e+06
-6.695244994730473,-161.61052306738858,46.06640891116191,2.9088408e+07
-88.20214605829246,76.63853873709843,4.2957065296449635,1.8652182e+07
-152.41008701497987,-0.5844788732993607,-3.8656704881509603,2.1832108e+07
-102.33593147347408,95.73838931262185,23.89016471826137,1.3208129e+07
92.87505084843099,-100.86478925295285,32.39282285535313,6.1276308e+07
123.87668281776337,124.98191474288069,43.071426046933986,5.3385332e+07
80.32928685024484,-137.6361524513012,-3.5917551725297656,2.9783928e+07
-78.6274368301942,135.81048280954826,31.212255412834516,3.230481e+07
178.713575069432,-56.42456413492886,-1.3246266431945788,986592.56
-144.3462737300028,71.02642518159826,5.794076051949627,1.7109004e+07
183.2272895928071,-2.0793965224029876,6.760855001499488,6.3733865e+06
19.125181681530393,-131.949061847648,1.247339329970207,253616.53
161.75542292992418,49.039884657931395,20.985313765786362,1.4990022e+07
7.3000411086753445,204.59840609912698,-1.1605592267322793,1.5815124e+07
-35.17206636632278,-175.52007868789977,-0.43919752627002673,790944.5
90.95876866296061,160.74301475841224,16.77736510444267,2.5243746e+07
55.09070911240258,-131.23881394530085,-3.403561050698495,1.0367443e+08
-114.5408859117002,24.477759146011806,23.86609452758617,1.9192034e+07
-69.07151463373603,152.02082753131498,0.2843455998330331,4.9652908e+07
20.11196314283802,157.28611813285454,33.05230623087266,7.6439145e+06
-110.43026991410851,38.72193520099498,40.68098965370144,9.65458e+06
-165.73833030516047,-48.41446626943639,8.335170657002335,3.8076605e+06
32.7105887595618,136.1238419415791,45.80631406172871,3.893559e+06
96.43176774058986,155.24826382025532,29.40955178283945,3.0341596e+07
128.89559396236882,-97.56038476451606,-1.1708499779410504,5.1504015e+06
-212.27733351370458,4.2951596327764605,-2.513634939457801,589571.06
144.75095034774597,-94.01455218196062,17.11994178225243,2.8315108e+07
-54.09893129058506,70.85491064209907,27.15830816167491,1.1603021e+08
-98.8163809327415,-144.3228909334656,46.9823158746629,4.0155816e+07
-36.328014652550735,-93.1637764776534,46.01165673268324,1.936712e+07
-73.97885066810144,-152.17403700651013,-1.2809346518698534,1.4576906e+06
151.17866352834818,69.6080999694043,13.122633098023375,543605.94
-106.88735441064897,152.24188634375798,-1.864376792404054,5.2965056e+07
86.4775483881138,-114.11395108006724,-0.5947851122023291,3.92631e+07
19.930274231650174,-91.04720072714044,39.33795445583427,6.195756e+07
178.46188190533047,-6.963664597692059,8.380872235086963,5.562684e+06
-94.00394658090204,-38.03542825089389,1.8436309522176089,3.6669284e+07
-76.7441474203817,159.2392241732452,-0.7959776635120397,8.0337384e+07
-13.24001943877073,-114.62422083613478,38.30092545318008,2.5638882e+06
-61.38838811639636,154.78398421179702,5.819372715950827,7.689589e+07
105.42674860190397,-157.8620280801292,42.54772903666863,1.2964396e+07
-182.58146584064485,-58.146645769036354,-3.3476051205786463,1.1734e+07
182.41151092754734,-35.621120207667076,39.85182127761507,1.4762463e+07
-188.16944354308623,18.19663162191705,21.676337805829863,2.4319215e+06
180.44760228850072,45.24394728126606,29.445333722891796,3.4495612e+07
8.989773248703102,176.10241979965872,14.94465367069786,1.339895e+07
42.39413967599603,-86.16698048447722,11.80535175439191,2.156293e+07
25.004881744676084,82.50248991755808,30.336435699988527,7.918946e+07
36.42698404444684,-153.39151207986146,-3.7189030405505292,1.0374823e+06
-90.57856875141167,-33.451092436384926,-3.407931730099531,3.9225892e+07
0.15962526416936385,187.74637904144248,42.98769499869708,1.7122008e+06
41.535793408208576,129.94375552134062,42.178106986242135,9.110448e+06
-126.17256795029527,-77.88870383559399,-2.6533682472256555,5.645479e+06
-103.2423072071414,22.821747131010596,25.01524962778662,8.171909e+06
-38.72692705576992,108.69311139535404,32.10175536180967,8.382867e+07
101.36819190964945,159.02298201516066,-2.7208261057699175,2.8051026e+07
115.96585772797795,104.2638480920321,32.77228532510201,6.982976e+07
121.64638326192289,-139.2663114533994,1.6823778557479816,1.1720291e+08
205.52028084732478,-50.593048713103826,14.084022607479316,536698.5
64.7456412662292,111.02044515669024,14.423435330916124,1.5576983e+07
-116.77442644355747,-159.8410699798517,23.730863396664372,2.89154e+07
-16.81634840140842,-141.57808343663774,47.22800167072755,2.1567562e+06
-77.86678432367628,153.47035111776893,11.782489677384003,6.6473976e+07
-56.491817023235484,77.61180606898688,13.731405284247746,4.32437e+07
70.0216441129312,-149.09768031407032,20.14840147905217,2.7891932e+07
-148.79849583452005,30.800707029935637,25.939963476544417,1.1581908e+06
-99.23256106852116,-0.23652059839542972,26.608823000691125,6.69775e+07
-149.73035286643315,-86.7389126584666,-3.0608906325491603,3.4739195e+06
-82.45661153013017,-149.72558917263086,23.11608773796166,8.410407e+07
25.572470629347976,-164.11873328717144,5.623386234700982,57583.176
-62.476394108806346,97.42729369607025,43.30726047587273,3.2337644e+07
-71.34782122855287,182.9227874292012,31.51429969258963,1.3142704e+08
-118.56352456367607,-65.45157449464017,8.909306065507293,2.874275e+06
12.286247623405501,98.73617062136537,30.638480335975267,9.308288e+07
102.73263110281539,137.46678078187148,18.845943321976762,6.86457e+07
-97.83509917515393,-13.013162976766324,7.917752209015919,7.19032e+06
-59.27038783581551,170.75125758103462,34.107525646026005,1.009305e+07
-75.21776516081104,161.0040825419614,21.574142403154397,8.81264e+07
28.943999966525496,-176.40518831807813,24.013878601692916,1.0204469e+07
-157.0232694423538,-79.02310651139726,46.52965013166958,8.019406e+07
167.95043302687947,72.93139016251655,32.27382829404978,1.1305761e+07
-159.32626576364927,94.98501001509084,15.355258011113808,1.6006196e+07
-90.10897588537944,-115.17793983230507,36.20831475218046,3.2863534e+07
136.65142051635803,82.92987206239934,-2.6578100343184654,1.1846527e+07
12.530320439859736,120.34161366222514,47.305608786094275,9.879367e+07
98.95254680751412,-1.1525456822966476,43.251938706820134,4.2634456e+07
-119.82077991378743,-13.289648250423767,44.65018386418656,6.183539e+07
141.31856794118568,-92.23626595053149,40.24108083882206,6.6472175e+06
70.90883079282452,-145.16990496702556,33.230785482123494,3.2207732e+07
131.9271809761944,-12.819078172031169,43.39533000113616,312437.1
-71.3168237288979,69.56904982868923,26.4180512998251,5.4812292e+07
52.765651528603144,-49.79568888912536,35.01705130868771,4.5852076e+07
-124.27507646789302,-120.12824672250454,-3.1500130625065927,3.8978118e+06
-23.54664468848887,132.5158477343478,30.262447741934288,1.792562e+08
72.94303794767063,72.93371932494466,29.322503928376705,1.5267324e+07
49.12201880378245,-95.08151942601138,46.722408180065784,3.5408844e+07
-66.8013967184078,-126.21067270400974,46.69371368644336,5.6915144e+07
0.16471280880776362,165.7505013567678,-4.906891463795853,9.752657e+06
164.3565089997635,-80.76646250326982,6.535250100035228,9.871528e+06
99.0005497147344,-134.79166581540107,33.685700142798616,5.3673244e+07
84.71981705857195,182.58848213159774,-3.24443321573558,8.158722e+07
-90.14237326735591,-37.71130105902182,6.342853534252388,3.4139428e+07
-38.656357430767,92.16312273229181,21.968598281422732,2.9400448e+07
87.75764681416172,-84.06289925610105,15.427729982402727,3.9305344e+07
48.16854902882028,-198.51757747347696,13.452847067268106,344836.03
158.9242892989107,-31.95332430275161,46.87882083067547,3.2069748e+07
-102.63730566570739,-94.78802839308806,7.260050131556273,1.2404885e+08
-66.03209615003635,-166.57801280536358,-2.2396390862244746,3.1267162e+07
87.00684363748144,157.50223456882117,13.450070737119304,1.0113658e+07
97.38761588818602,24.43495840941597,6.598407057905744,2.2391762e+07
154.9065688056026,51.929923137193214,12.400424259058251,2.1497252e+07
-94.32779171481367,148.99182949309278,13.990972325622096,3.0270002e+07
-178.64324691269306,44.77942955301006,28.469573235066413,6.2596645e+06
73.26849420780258,-71.56246214873755,40.054770981204236,1.5542936e+07
16.7934378061299,-84.8834491435392,-3.7174951311380546,3.6036065e+06
-78.24257508344448,156.25157247028022,17.625103499988015,8.6352984e+07
-60.28473074701773,-22.359037355575026,21.884459624897573,5.9267476e+07
47.5229496918754,134.1324967546018,-3.9060664719865175,6.5034735e+06
125.8067454102424,76.8733222969505,-1.0514619475038378,1.850733e+07
-10.057638265402943,169.19549031570568,25.06679383232283,2.3589171e+08
-67.75413668685707,61.39749195479067,21.64563132117519,2.001268e+07
-93.36808324669893,-199.02746121754774,14.019705150154525,1.5070626e+07
-115.46930266972267,-137.88799673338008,35.02865383389979,3.0839768e+07
-174.18571203182213,-10.182147429639741,23.653617188657602,4.7662875e+06
-119.70035728615818,120.07081950288847,-0.027889204646514898,1.1544194e+08
-151.16262754251727,84.90720482346626,-3.031706741654322,2.435096e+07
-33.37518037569896,92.22319441434297,39.78315956681732,6.854042e+07
-154.15607755561047,-76.46796377168167,23.767034134346353,1.3730914e+06
25.47470362819945,138.35341098731823,2.978895092826561,197413.34
133.5132048523081,85.71655833854601,7.918106393876849,1.7582088e+07
-29.357158570755757,-140.1327608676355,17.224770603825508,2.393099e+07
115.53030820326904,35.037127503730005,25.421393782794084,4.3907776e+07
1.3691722367730392,-99.39502284680471,-2.8834834047238185,6.477562e+07
124.7125899437346,-108.20783203302122,-2.083426699557738,2.4580452e+06
171.01445224738217,-34.116960835009365,-0.7553349763758304,3.1954218e+06
5.2623423542391095,-156.9296295537833,46.48348256521916,1.0545728e+06
57.692068104058194,88.02164984772571,13.224042036851667,4.8679956e+07
-169.07557268907237,-57.2006522268548,32.836848436067896,1.2819463e+07
121.56591280882418,-6.974899748297105,-4.400728104062963,3.4472256e+07
120.02051705638712,-32.00928234721309,44.5722253212103,4.0139976e+07
-6.8440755469635235,-178.65221349588705,36.48608372795988,54226.383
-155.90971794310389,-55.9649322489488,17.2792942860541,2.6822108e+07
149.41268020971864,-116.50926928075457,-3.226839799490076,213741.06
83.12649710196706,-57.78153915610076,20.893067725307464,6.019236e+06
89.4353589085942,-40.93783712784693,9.80805474027957,4.0709732e+07
101.69614465808417,65.83519975098613,44.79300369064689,1.7935146e+07
-54.57967652095337,42.34423221803161,12.083073284651121,1.9157304e+07
143.89639669409314,78.82539779701165,-1.1060900192247578,2.3570834e+07
-111.19649286533708,22.642472698376963,12.91002614734844,1.2022049e+07
108.24732906416625,-53.58543108289615,7.178629922392901,1.1705002e+07
65.58405531293761,-173.54043751075972,-0.5976231860708339,4.755801e+07
-10.929412748781573,-146.64442639288848,34.50272191069154,2.634714e+07
-19.69164255727921,-118.44690047187454,-2.1078915423216746,1.9372292e+07
68.40656672771462,65.71669756698014,8.982486228857242,7.370745e+07
177.87376376744805,5.367848483133599,26.055393621378183,1.473735e+06
-141.32240303911487,-67.10937230189325,-0.5656233954785055,2.373613e+07
87.18377852258914,132.34051060771145,0.31018070006422693,3.8958652e+07
-33.57151480194793,171.89344967102562,-3.637386948337058,7.973579e+06
151.30303834572862,-73.18527537475416,37.82711628444073,8.807986e+07
211.62802724086163,55.36058405806898,15.405653343600793,2.2608432e+07
70.40533283944467,77.21072455412707,15.210564691893211,3.2277122e+07
-134.99373918723887,-100.22359621945023,17.770214206151753,1.6478154e+07
-49.29040085058696,-88.72562884259565,8.570159526037525,6.134316e+07
-116.83889342596125,1.5038411947751058,41.995652899236674,1.1140445e+07
54.91730734990648,-87.8525638467551,23.983655601417944,2.0862676e+07
156.45431636242427,-40.22263965580109,10.188567329951129,6.453066e+06
-136.69864755099843,-77.02573365141396,20.23411414593392,1.0932072e+06
94.93611792960866,-23.02392331795241,24.921511373506917,2.4490874e+07
23.594796778269,151.53663455376108,32.18145026848598,1.4134455e+07
82.06096200323896,54.498925581053356,-0.48021528396743296,2.9829204e+07
2.205834829590117,116.36257956357355,-2.0831053397399306,1.854312e+07
-182.00395331601942,31.73469856863136,1.4311996575308177,7.100329e+06
158.5304118648491,22.05242192263168,36.161906650929076,1.6326393e+07
-76.14267873345645,67.77982780180145,-2.3229563753411746,6.370554e+07
21.233293984458953,151.83429912018795,-3.707658147604063,2.3873728e+07
-7.949974059978729,115.17103394013282,-0.024476524496403584,2.9920156e+07
-152.75661363996596,-79.30180451936101,42.512306018818414,1.4953837e+07
105.01455472275819,24.63920559295832,29.021964828100202,1.3141177e+07
123.1792210937619,75.13439467652216,28.420768940513888,2.1382316e+07
-45.843125932054534,156.16909854887518,-1.9458094956219716,5.0890784e+07
116.96654728488681,1.4377414553272843,44.37518014312141,2.6197634e+07
25.18649446128157,-183.188617883863,46.760495172923335,44686.895
-162.79506363020687,31.86086581770948,43.511440957550676,7.254458e+06
120.32949281428802,57.23722620357631,44.155643359221244,1.0595817e+07
-141.00921504015048,-67.99194581801686,43.248451705317144,1.6699719e+07
-180.03403622876212,-39.05416986525279,31.914352404262125,2.6521808e+07
62.270485681926004,-83.1408026758537,21.33740023265263,4.607594e+07
-179.9051819423622,-37.23946691276669,38.22149385269053,3.1689288e+07
10.547363850787832,-106.35456508180532,16.46352333430276,1.0616306e+08
-54.47253260220313,-100.18622618817861,42.61021099466327,3.3856852e+07
-99.58281087725409,-144.68411276680962,9.396910366270948,1.783252e+07
117.18870853770687,-25.371990912145293,-2.3943734981135685,9.436245e+06
101.39454085723582,-114.01598893450704,-4.049460586004272,8.434647e+07
29.44675579320287,102.00022296359401,-2.2908869813184185,4.1439412e+07
-133.10229524156372,-61.5487267451895,-1.3286534255872793,1.746152e+07
-80.81803692466175,-63.60156694900772,7.155846215581443,4.300416e+07
-25.185709572647482,170.67165031277034,43.42682086446362,3.479734e+07
-83.79780995680966,-72.40948076403168,26.72981110214358,2.1358906e+07
53.48382242624649,-137.19474009549248,1.702745853711681,3.167298e+07
-12.036441252775433,-180.28516775299676,-4.112175945551917,2.5873418e+06
-25.91656228816302,164.46250830059853,5.780159897427277,1.0939667e+07
103.33643066432,-1.9420212580992882,22.28607650725801,2.7533956e+07
-106.32357910175816,44.74054681356944,44.06475806614643,1.1538132e+08
-57.20386845553776,172.165098267852,41.05212192527532,1.9230486e+07
89.57122209105643,-159.91489356817064,31.178357876932353,450166.1
-201.74125598536094,-17.710562722050184,-0.1301377185116781,2.6523178e+07
168.2232052496649,-12.004004020138296,6.005005900267118,1.3597553e+07
-177.32017433753072,-4.1596643676145675,32.49655404954122,4.950403e+06
-122.75470619582127,-125.66658911006573,46.06617441571315,4.753524e+06
155.1203815361725,-107.39642312564354,44.55824180641726,610575.6
-125.91318730633394,-69.62325059878748,-3.0464704383847865,1.0203893e+07
-65.25208090372607,-146.71281467623606,42.628348815316045,3.4176268e+06
-118.1695612776093,24.108539674945717,-1.106005501979881,2.3081542e+07
-74.70584378711865,-160.43895920879183,15.701578559799557,3.945413e+07
63.94928137847535,36.43826031378481,37.65098240714935,6.139472e+07
82.61390194198941,-116.1462317591874,45.01049743724127,3.4652704e+07
149.73806818658164,-56.57045787983935,-4.027707730620884,2.131611e+07
-1.3615879558731763,20.290870571732853,32.282326841705355,1.7506437e+08
47.01519375327547,-107.31236097029748,47.47642166488856,4.0713824e+07
-106.92501632256331,-8.463905612136045,24.608400859897927,1.9565598e+07
-50.84403136297999,-88.06125534182655,13.220219925755675,8.67235e+07
107.85403760517096,57.43695393966527,46.197845034270614,3.6845348e+07
-40.10397927116608,175.38186490858493,45.16476227393229,3.016683e+07
-103.97664283530376,154.42134203094326,27.17218332953324,3.5176376e+07
-17.494000976971165,-177.63420254196822,13.392786191534583,2.1362718e+07
5.25140926442711,-100.39376204076336,39.85018510937346,9.308958e+06
106.22763522668521,-148.0077087750447,44.81947468003136,1.4352744e+07
-172.95996789560297,46.17926121491314,1.9078308886550923,3.781919e+06
-17.347644139327343,170.94788729869094,10.241350484433188,2.7296036e+07
-93.79350782838007,61.877260823089046,27.25444627271358,2.1539294e+07
-146.09836321730967,83.33930474239628,23.7934728785761,1.0467198e+07
99.0403502298555,-2.3115645706459986,41.56318392004727,9.048916e+07
129.94217290407448,51.141449636594416,43.04246361453022,3.497844e+07
180.21687238329076,-26.22132311231894,46.63992877913457,3.1513652e+06
-123.02651976796723,-134.34798843969446,25.03905706092796,6.104958e+06
-46.0002856148831,104.51309169809241,-0.847927204733244,2.1983412e+07
184.70180222998312,12.218546792244126,27.858158729774182,1.9212586e+07
-175.16759050251397,37.656610764601595,30.861609395380277,1.2967838e+06
76.83992817332785,58.94798212228517,29.73802665324748,3.2472866e+07
-115.87242294773581,-41.40863357651688,46.336877500008335,2.143661e+07
-55.29106879708658,-154.0903268744993,15.571986114151237,5.769043e+06
-149.30155858035744,91.28283109504878,-1.387524247284499,2.2381864e+07
64.08983361136166,77.25225078256835,38.712362876642175,2.1742408e+07
128.27893732747862,132.94596338332798,27.390078221894314,4.564653e+07
87.32166659176528,20.707319099611055,19.45452349097073,4.8000784e+07
137.40854465557163,116.17347581301215,28.819828161802945,5.4484316e+07
-25.31929451385068,106.94131518230506,46.86805890427669,3.7351908e+07
-56.71353673184913,-145.1951789494403,13.17104502713265,3.9747758e+06
42.85998140999715,180.4146248932691,46.43816687448326,1.1182454e+06
190.36529200361622,2.8641980638781206,16.99562501438289,350180.9
66.42046769004514,-118.26007094056823,-1.3868415963029959,2.1834346e+07
-22.625876225370405,-155.1024764335064,-1.6918798868439233,3.6903492e+07
-41.27452050988981,166.78000120188273,38.67482363682874,2.3833552e+07
174.06822717293596,58.34225085389568,47.00817278752077,3.1716086e+07
63.10746678984685,-90.23678373812818,-1.5237788461600705,8.331476e+06
51.67913214624224,-110.77772888815684,6.387185900082544,2.4385046e+07
181.4620382046179,-14.712543207523083,34.45300880256528,2.8997628e+06
159.47867638859196,93.6750881742093,-1.2098804722686718,1.4972565e+07
-151.47550477391337,-10.178289469798642,-4.008222427959191,1.256126e+07
-112.00449190258433,129.67372929488624,26.715974687885122,4.7880176e+07
70.84585323462323,87.63180891104417,45.38048595703683,3.9760684e+07
186.10542495347732,-34.46651583231474,-0.7276206031848647,2.3561886e+07
-39.830169963068414,-126.25629834106358,-3.8207346561689435,6.2406875e+06
22.391527387275005,-112.15557481573123,45.40181026600378,2.3715334e+07
173.01079314652264,89.08942377837485,12.44095246933356,2.6779778e+07
18.94468187645569,-143.85274345114232,43.675272084501756,8.37741e+06
104.12467278077492,-9.242454969945953,43.84847450107642,7.114784e+07
-36.94000295654723,149.9881788217089,-2.5281245345059227,2.50715e+07
73.28451925240711,48.65291978072065,13.602063660016722,2.0893332e+07
-176.64956026788232,41.38246867096501,45.7757681520403,5.2421e+06
-130.40471035904795,32.12733608967676,7.752924387630117,3.7760012e+07
9.925578405231306,-106.42296841946614,43.820617225403616,3.6664668e+07
-135.204755014241,-83.73489439393057,43.24855492100354,1.2589554e+06
70.79400391196197,110.80729571946517,46.57757641780284,4.32122e+07
-5.155492710490989,-173.69068223133917,-4.516675429677729,4.316358e+07
-126.03437796660019,-105.67079906114567,8.193251602828791,3.2330474e+07
-35.68982363981914,169.26504281781098,46.635691816008105,1.8974552e+08
-147.5605991663578,106.6306411144418,9.873824560135203,2.3971152e+07
50.76505187203168,153.54501729225535,26.363420328044025,753419.3
152.8676899228053,-9.84505684058476,-1.8532885383539632,1.3923613e+07
72.15112765690071,-166.84788711316423,10.003145427097799,2.556352e+06
87.0035059936647,-28.806037995460173,5.992120450888697,1.9779868e+07
-88.9044719171183,-113.19495278607441,11.108184420808897,3.2793954e+07
155.25354191745805,-0.28206287543059716,35.91556647809097,2.4581136e+07
20.072513165418798,-149.84396931928654,-4.820849084665263,2.8402555e+06
-167.5195883449152,-76.4695750919432,44.81065564150924,1.7999622e+07
106.97394134549859,114.8165243551885,-3.0138162898826373,1.1472076e+07
-57.15144205192664,-117.74526716698497,46.85834569850668,1.8364704e+07
-176.06130617816908,-59.05652913941523,-1.1865752873707556,6.8864125e+06
-67.63358246608084,-138.55564110604047,42.82801512399689,9.025092e+06
103.55792548635236,131.27259937904773,44.71836093196683,2.0951306e+07
6.250433437909265,101.38625600170468,39.01348364237943,3.1173568e+08
-27.76257032140461,-144.57874322355212,-0.9104973563624075,4.0098055e+06
-172.23640511746004,16.384579845200562,36.082698340127315,2.1891744e+07
-152.57920469979658,9.772978886260006,-2.009666889900632,2.6069378e+07
-97.8492519180737,126.44468331166723,43.49709967908417,4.6735424e+07
111.63653704481254,176.9963253133467,46.641069557905595,1.9027824e+07
-162.74490490605817,-54.13823393770062,9.721358362639918,2.0456104e+07
23.46935178129081,105.33193298823721,20.89167203240087,1.7606632e+08
79.51462360810916,165.5153679869798,27.258245021613604,6.2456195e+06
138.90375822446322,-23.095922042477042,44.30265359463475,4.7185595e+06
-146.82605211922203,55.42449430741959,44.8631802864545,3.97301e+06
-165.97312443787925,-44.13109700554867,31.81897924308845,5.015331e+06
76.43559066566763,-97.56653867038463,34.337657439439816,4.088806e+07
23.90493158646933,-180.0350804578581,6.931487266149025,16859.805
-112.74027456219503,145.99528122288064,17.437237017692052,1.1890898e+08
183.3102475039347,42.5196900246944,-2.323499161480968,1.4152372e+07
-184.6931214049937,25.884468706684487,17.977350444059624,3.4744238e+06
173.09054228122466,-66.78704327831983,32.53979640551497,1.3089036e+07
202.76463084938672,-29.379243188940706,0.47374735102584786,2.2628934e+07
-172.9702684533206,77.59335835951663,43.28284448695472,151704.19
-141.8888154731296,84.57220164907216,-2.0273300360959143,4.180365e+07
-68.35200873685665,158.34396577277596,6.7545439857667855,3.381051e+07
-132.90830723357598,100.17249521827006,-2.771386157562124,2.525196e+06
37.20859423122181,-111.81030385741653,17.036219213137468,1.5675162e+07
36.564987127246894,-171.091885713593,36.58259655720414,471088.6
-173.2385513870847,-58.23321790506739,27.407994566305362,9.800176e+06
-154.9683434441992,28.870291062292466,45.23572189124891,2.7894604e+07
117.49473122270075,-61.28335209658084,-1.0600815291256165,5.8755545e+06
-90.44833469264967,67.67257368116873,35.49346712961274,1.68846e+06
-133.03011206220373,-119.95572504354975,29.308101514354675,1.5628256e+06
23.55605144713408,171.32238738617025,19.639750498177083,2.2852524e+07
-190.75152739211592,-101.7992621049371,9.83421384011974,88904.61
48.838168957910625,143.69099364521543,32.53989845158307,1.4798256e+07
-169.55980641809296,44.042273992979744,46.51687705996322,3.0494802e+07
43.741707534754426,160.68106747638188,16.406229582641576,6.4951664e+07
110.49068701705704,2.8453290906490736,22.113423963738526,1.1221623e+07
73.18463529319723,-65.70696895853996,27.327229517788332,1.491883e+07
-77.02485076598234,-158.43142956688166,46.17587207822802,5.343685e+06
118.28454478969701,95.57267385258507,35.851024107333025,4.9794156e+07
-85.01387317187815,-131.4213689882676,31.486405384050812,9.723345e+07
-167.05200032291913,19.257856526454503,42.07417144292663,4.9904644e+07
166.20770705932568,-90.88770567274439,43.92979542387019,1.6157307e+07
88.7856861091924,179.60961877425854,25.07605437639471,1.6823106e+07
170.88866551737846,75.81944543073342,34.82370602507219,998000.94
-140.13727847059613,-81.0327520441576,46.18543558754842,7.833344e+06
71.4022184726025,-89.01670016737542,-3.9463913781044564,4.4400556e+07
-47.0691488138138,88.24797587745559,9.996676802079692,4.6262028e+07
-189.35972016694552,125.94675764107899,47.03402784294294,8.239564e+06
-86.24155571322652,-79.23410071259522,21.74232131284998,7.4641505e+06
18.849295800730175,128.04975237397684,45.64292413900193,2.8270932e+07
-98.03172116175844,-2.1858474253274096,32.96646404867167,6.8310104e+07
148.7788967197177,150.83229207169842,29.841816948007413,2.9905066e+07
-195.67382632254333,18.83273619757739,14.827711619633302,3.2115074e+07
-158.33121224811126,-59.95912614766323,-1.6530653172776706,2.4935546e+07
-90.34384294959708,95.34051975057838,32.2306865613815,5.907738e+07
-131.64446997982895,119.36561979669864,22.941812561111334,7.0686024e+07
90.21221716586729,-2.278067911421232,32.20957847351375,1.5565282e+07
116.79474747680928,93.15142687889085,-2.1012770463264046,3.0110782e+07
-103.76090748982746,-116.38757958661226,-1.3429089696388101,4.2783404e+07
18.791208345533164,94.23059515255773,6.230475761913036,4.475642e+07
-74.04088476536663,-132.63785670815543,-4.483369270509007,7.0233835e+06
-113.7294975132133,61.423388152022255,-1.768237622511423,3.679082e+07
121.0541926230627,-16.944538386390008,13.139702163862218,1.42172e+07
-138.3997699740358,-65.7880862094749,-3.679269054301612,2.8856922e+07
-144.61165733874026,-66.05871943177024,-0.8424074857429824,1.2952332e+07
-0.40064003521317204,-167.43835237063962,-0.273623268018512,1.5574043e+07
100.45425476443728,42.88912235411311,-3.314960766160432,2.3798216e+07
76.25149939274712,66.24966463402512,-2.2908922854550817,5.6941892e+07
-177.95565034439898,-42.67565895579861,31.999069928365657,6.803981e+07
-42.82148919260007,110.0666758675099,44.34387358171652,7.547754e+07
181.3721006091609,-32.67183215939494,27.226337677839965,1.920761e+07
-144.90270828364612,-94.51507212211196,21.84582672041412,1.425245e+07
140.90563688998662,-117.12194562312466,44.96106523210981,3.7133312e+06
-48.53712073089193,-127.62516089058252,-2.221287869893997,4.545281e+07
-111.50571396604195,151.55872918508578,-1.437576032535794,6.5996576e+07
2.033596155977534,-180.6261620369386,13.482053788692333,634192.44
26.97417046411826,49.44677544734111,46.53872309654542,3.5800666e+08
18.84967399957597,-103.10527175440832,46.12380626318125,2.3889548e+07
-0.6203663874173913,-83.8854974006475,26.364552773747157,5.5327976e+07
60.8267976657408,176.92862987249487,-4.460610295777498,1.4974515e+06
-63.558360360887974,148.5166460058034,0.1535691787618676,2.2535452e+07
-114.43032601802051,91.3739903764918,-2.5841939537397245,6.440604e+06
63.388023866998765,138.18481233297615,46.697489479367704,3.3376445e+06
144.70248636213944,-50.70169201368236,-3.3133989201521272,1.2612716e+07
-126.3820982391025,61.09261483833757,46.654647597937114,1.4848638e+07
-146.17298106761714,103.69546301496194,43.77316360763659,2.9960482e+06
-196.2691279137042,-53.65524777229359,35.64506891273536,3.9165322e+06
101.08554270000695,-9.832130743380901,39.539057366434186,4.5042144e+07
-95.99812166739048,-114.09696787853696,-3.208016414279535,2.4648738e+07
183.20937507458854,-24.748194780655894,44.30657144094355,2.1567015e+06
87.70536814730826,47.75261590835851,45.26047261464725,2.124598e+07
157.81299991049406,33.22896934628193,12.070858059734018,2.2224162e+07
-88.41769718016039,-48.71594384648205,-0.023840118229571772,2.1483096e+07
97.98709189628568,-131.839799176525,19.871629316617838,2.868701e+07
-87.56114852230344,65.59521343386308,-4.268108420435368,3.4240044e+07
30.5974283973286,-108.4164651455546,31.300158717394588,1.1138941e+06
-19.924635862047808,180.6330428775584,44.928387594722544,8.433526e+06
3.165527127691064,104.02448080718955,47.44088877381863,2.0410646e+09
134.34730247210666,9.089900593771176,22.247180935437118,1.865937e+07
50.37728601695511,113.95655205256884,6.966739912000529,4.1533428e+07
-199.8618109218723,33.938047608596804,34.88174901093602,202199.36
-147.2571111319462,105.0501015618297,37.01681729264212,2.1666438e+07
-97.60546741174794,48.98110976672467,28.36465340665677,1.8212701e+06
-98.58820206344217,76.10658752156803,42.77142505246365,5.2353665e+06
1.6268059729318622,-179.39473322987521,29.79620263064232,4759.895
-27.07508613716095,-131.60649466247577,-0.06435492480062432,5.001287e+06
23.878520959380864,-161.63121890100695,-2.506552086848629,223988.08
-62.50043498180966,-80.52950289193981,9.971299871595253,6.749294e+07
55.68391565878113,-136.79159742101155,45.317638625387666,2.748076e+07
-134.96134013150993,47.05403754456398,22.690055863810485,1.446506e+07
83.25696553674635,-143.85549295198678,19.712367999859058,4.4392135e+06
44.64100769494377,-115.22413061659213,45.03325226820977,9.871342e+07
-105.32982608159666,12.24179986240864,-4.431288783925087,5.2708452e+07
37.808271683573906,-126.79496221286115,38.042344068988264,864222.56
-54.121213543296534,83.29991887736264,22.214884597654795,6.297285e+07
-183.45873356926083,18.00999678066114,40.14650334340109,1.3552091e+07
91.5644419931877,-28.251352981821725,47.17545506416964,2.1941972e+07
-71.6793639270081,169.90498859707515,-1.9557538071340392,9.594437e+06
-185.2552568321027,12.135678734432872,44.82699216978545,1.4554502e+07
144.19858872678464,-119.18222810733592,13.03883399074535,2.4568754e+07
-67.40752968395833,151.65398630744784,47.43937706576659,2.1115828e+07
-41.03342406456795,-171.72997737069298,43.59729265985008,1.0298669e+07
-58.10857872214413,-55.37270794935276,15.467430800732789,1.1772283e+07
-135.38313256869435,-131.8294297130919,46.99542506643948,2.4647372e+06
175.30762130251844,24.11259400920872,25.196407161230283,1.5355518e+06
65.3606441488019,85.30534342216083,-3.690608765275367,3.1623824e+07
152.24080350177502,107.49932985614998,-0.07237638314532635,4.749215e+07
-129.30962549802683,97.07484093569298,-4.458474628237074,8.28218e+06
92.5787987151669,-25.360010505279945,43.03932654681782,4.2093625e+06
-74.8225830089697,-143.27805352224155,47.08674820052072,9.319962e+06
104.98151920148013,-146.85204467376957,13.456326356718382,1.4730308e+07
-82.67387719809147,82.27660347775907,44.67526605331834,3.658203e+07
-170.06588833171895,-6.42131050859669,46.1219891894688,2.7269292e+07
-168.4794662882506,25.487982501758125,-1.8370582935913542,1.092628e+07
131.37399923790946,46.04083585253511,31.504633992440958,1.5755643e+07
50.59948680160585,-129.46638469204385,44.138483516373185,1.3826042e+07
-12.203715319839546,90.66029150222283,15.973088081911293,9.414885e+07
-28.649772403915932,98.68382012875293,-3.937143096478054,1.4728619e+07
-181.3169919084265,-6.5431020632975105,44.032836147513514,8.2533075e+06
-20.197914841256733,-170.66997475174327,27.656105041377188,226081.84
-91.22554358886389,-113.6227324819056,18.042885385249274,4.1766324e+07
-100.91300770514675,111.11222497580718,35.08617928674346,1.1706192e+08
106.96070504401087,-82.49390372430926,43.65835444823609,1.3713686e+07
9.37648564348956,186.0371416318826,13.559601680818545,1.0064778e+07
-166.62358187428163,-87.59682513997338,45.53114734718478,1.0937477e+07
-3.8262689555059524,186.23060293965227,-3.0556025142661447,1.7510806e+07
125.04411290579185,98.79148666740173,-3.9098347723767626,2.2325194e+07
55.732216806020745,-92.65415726525194,45.20220550978141,1.8954459e+06
193.20122122520786,61.46438687144405,26.33894810768595,2.4190322e+07
90.96678111695695,145.6391055435509,-0.6123055296557061,1.8112974e+07
-44.16426316348796,-101.10711446403045,46.2722984597514,4.9825216e+07
183.56107374028431,1.3008835502508589,27.297494616984537,235437.17
96.3937012847233,-161.57920875349708,8.307082894124385,2.9714474e+07
78.26430874796318,-139.01411446095625,46.51174701424861,2.3438708e+06
-56.20741119240924,166.06702795433876,-4.4967495634416075,2.0803578e+07
-126.23091774194918,132.8810125243166,-3.612714686603769,9.586368e+07
93.61568896118217,105.05503793015885,-1.7097326013061545,4.714058e+07
154.16330610930868,67.81626356281117,-4.359978710057983,9.751914e+06
-104.2522863729338,146.49712620515396,17.431968220108278,1.665945e+07
-119.01303387320533,127.88897085275192,47.23151017839343,2.399275e+06
23.99616474134308,-116.15488254200318,25.719378818199235,1.9043198e+06
43.923213389017405,-65.87959758808026,28.44730260609031,3.681047e+07
-169.68403130541125,53.751060585775576,9.630630797770415,1.3354924e+07
153.44564173954132,95.21044351415685,-0.4105295851896642,1.6304466e+07
-155.01480864713486,-101.86342187746682,-2.9836144709519496,1.2453957e+07
-122.93505481742245,-103.3448224163883,43.373536317404245,487186.53
-123.58568152886167,63.257192043363034,38.35839798493004,884088.75
78.61617281694566,-149.2911288796689,45.27712309128499,2.334231e+07
-147.02834409267888,99.94141160639145,15.657969130499488,1.9274922e+07
141.36187535906242,-67.2890878601603,-0.40274182235700184,1.0138062e+07
92.88562138964028,68.63848199117217,-0.6894755894993008,5.823872e+07
25.36661152523382,170.0171772879591,46.57625961431273,2.2116038e+08
-63.167686386340364,-181.27883804660772,21.18375806886092,1.6379323e+07
-17.280030852998436,144.18271549265023,44.45607031111259,8.710126e+07
2.723168039925781,157.05568877588973,46.76982978579679,1.2530027e+07
-44.53106137807316,-106.04767004600062,-2.2997773419530745,2.7435324e+07
99.1822989421006,-160.7120406820266,-3.881827808605421,9.951783e+06
-156.3680321427147,82.05647861886234,17.609617614176837,7.072964e+06
-121.52251260706298,-138.9267418761276,30.939607419826032,1.835902e+07
-60.04445621993409,165.54894992840912,11.804159592444119,9.388762e+07
72.05095251613898,15.023556666805064,28.684491381729153,4.225521e+07
5.6792049191644765,159.25030538624867,4.4506826375351185,1.7675764e+07
-121.29966551826118,-105.93385040586303,15.229258559351535,5.7105452e+07
139.04774629410093,-121.69828972233714,23.57114656535158,1.0401946e+08
-65.89541652752504,-169.14460357708836,32.4923410740538,4.2002644e+07
-168.02993259317594,30.76870789749816,17.292624584682617,1.3484903e+07
-48.999629941374366,-97.20395579565644,-4.111319397699977,3.1622618e+07
-68.73997529232665,-136.41621363606663,-2.449733323593328,2.902251e+06
117.68736169695711,-39.947506236503756,-0.44946351334982104,9.421207e+06
44.89615962802196,-149.29031040384064,-0.29863466627007007,821334.75
-10.833038756148937,-162.43785581746835,16.38560194639859,748115.8
-111.02447389438517,-75.76215722880758,-0.5393716420204635,1.2302483e+07
-148.5977759214092,-10.695674606363696,43.59444407578543,2.0113306e+07
-102.23511497642238,16.95174148857157,44.188486577041054,9.00728e+07
-158.14418376541187,93.32001264726023,46.59893734097023,8.831292e+06
-74.1613817472552,-77.97015502277605,46.58771930381492,1.3740283e+08
146.9636601508576,-40.875764727491855,-4.626567396320854,3.1590034e+07
99.0074956164504,161.5785261594637,18.62349558329224,1.2784424e+07
-6.690216002221263,-151.58901970416414,46.832713007924234,542933.2
148.34163175408696,114.93919231973888,22.990695540400086,3.2846016e+07
191.3481940604167,-1.9792628455030012,9.533336679414882,3.8703748e+06
107.33707783229181,-13.234631202827899,44.709964136559776,6.030423e+07
-44.77069721205629,150.4038812918642,44.44288196191637,4.4252024e+07
-95.2830418265264,149.82851173515746,2.746176556085538,3.4939776e+07
-130.9019358213546,-92.14629912806461,42.72316898832939,1.2730073e+07
-74.92620482577263,152.2854863098196,19.720682731001812,5.154736e+07
-184.36045110126847,-15.902230252751622,6.134579575764988,6.7749e+07
53.465320971673634,172.29728319184022,8.770950404280807,5.5585235e+06
12.865704496018282,-149.16802627887546,44.7648406440732,6.1103624e+07
-160.19663563358762,-37.76782509078669,35.13510924371804,6.0536116e+07
37.741940658224735,-183.12193064946905,16.65590797075311,1.0012927e+06
54.51450737329736,104.30216389722335,-1.033397182354168,2.122843e+07
-171.96206595884357,27.413876035555376,14.763717566044544,1.6280174e+07
-3.160062671484866,109.35845545648397,34.74296960014238,7.046959e+07
51.161412213307585,-100.49203124161731,42.78925314324214,2.5456692e+07
6.327895057555679,-143.2467328323632,46.21617513464634,1.2413325e+07
118.25486759235207,68.36345776669242,29.8396114083467,3.8458696e+07
-103.67146897013787,138.3490535211186,16.55726479937854,8.441334e+07
-125.94424556700105,-17.26063049836017,37.2964425474852,2.4076498e+07
194.05114198842938,-66.08460303722902,24.231658997516092,2.168552e+07
-189.27049698044564,-4.82997005340232,14.08952661108096,2.818561e+07
71.79554018969151,-161.89128543844424,17.33770038418766,8.354133e+06
19.268904613896268,-207.9132356624913,-1.471336861381031,880753.1
-163.52046674975125,-42.33447645499933,-0.3953565081167598,2.6609128e+07
199.4969198251792,33.87587122991283,8.112287274584443,8.1951755e+06
-44.57045817350155,-162.42578364170126,26.166101406706872,3.288303e+06
150.5690184117064,105.42803672654014,19.64272397299306,1.0782527e+07
49.046784302224296,140.54875438955258,-2.0703930764840526,7.698419e+06
-102.42276080147498,-135.41438425546664,23.115937902131062,2.6941232e+07
-45.91400142377131,181.93116133297013,-3.466733623129058,2.572529e+07
58.57521071346099,128.91196649592882,36.82427188473146,9.136107e+07
-79.19032409266103,4.198924994138451,47.315512332080765,1.8933288e+08
25.290701429057492,99.70617916454324,37.139852491946876,4.134983e+07
42.73574295141685,104.1764390547799,44.76644218611677,8.686783e+06
60.05533695349595,125.27700311247605,-3.933501987744367,6.4836204e+07
-94.59918079926666,-29.79122541678487,15.678795439852006,1.1377233e+07
-47.823355959101576,-138.85260403018896,46.00505428763397,6.8627425e+06
100.79011537932627,70.27183641669188,-4.515480467611081,1.6881892e+07
208.64775559502857,123.56029459642741,9.51653986998483,1.6059588e+07
-112.65310854803957,-43.131880266363424,-1.8466100363441038,2.3010806e+07
43.089326609759325,161.4691860343451,23.503617926183985,2.0848282e+07
-189.7207572201166,37.17155858763701,10.16610388117876,7.4378104e+07
-59.30084814171181,166.04408237046908,17.700672192339002,1.5446936e+08
-56.23723811019909,-123.7470817551064,35.73862207541102,6.402842e+06
-14.37313415468796,117.31095959760319,39.25061439724893,8.0232136e+07
14.73191462937828,173.68939161469632,18.72516941336585,1.2670399e+07
-42.43555913812051,176.05050592497344,36.176415347361974,6.7137736e+07
-17.78448125900178,-106.73773955458897,21.572707161352206,2.701786e+06
-171.43707268391665,23.477678044047337,25.896269224642136,1.1922994e+07
111.16192704032306,-34.22684229050202,46.7908039579793,1.4618071e+07
-33.07392009242406,176.92319255191637,12.542613399753531,2.1926732e+07
95.28319476192758,-42.98804039457514,17.11159301520538,1.0802208e+08
174.56442117012182,62.59774418189056,9.290711949188793,4.463626e+07
-162.97397229180854,34.7242859340937,35.64200245283671,1.4177125e+07
-131.74905335935688,-6.667412167909845,43.29250191901514,5.1580748e+07
-166.48930005458251,-24.845366209909486,32.77417110546227,9.525472e+06
-146.47313552404117,-70.32247440052237,22.9416515502229,8.42458e+06
88.91445410938064,-149.23952895563193,27.976393613709526,1.6746574e+06
49.08867162464492,85.30867599123121,0.9412695698994611,1.7971348e+07
-42.18806322670409,-179.07734217947183,35.236550894599596,2.7107106e+07
25.220900676906837,169.54433203909332,6.119236772867296,92647.89
163.44280622271935,75.38542880867323,-1.4352443532135961,2.2190636e+07
3.2244914650290184,200.5222777601415,-1.1778430345065964,2.1204008e+07
-100.29602520362347,63.16992566097571,25.304785570342784,2.7321184e+07
150.9319279354101,102.53259977503484,38.9715382814055,5.4076596e+07
108.52904017106312,-0.9571182043238764,-0.6970633590295616,1.9911306e+07
27.186059575798424,-126.74090416601032,46.89960247319998,4.315642e+06
-9.986003842372355,-178.1440447086773,22.410173552935174,1.77117e+07
159.36647993150922,11.17121125449097,45.93107350294291,9.993506e+06
173.87608867885467,14.123557380484726,-2.0742230674595397,1.1008444e+07
92.45936373141103,137.19671649854627,39.180523915031536,1.7683354e+07
111.42199389833473,141.3452753809471,-0.763271119108861,3.719433e+07
-48.61579446008881,114.51165723778371,-1.5676262048524805,1.2678415e+07
-96.23294624385858,34.17137485791119,26.84723393352672,1.6722707e+07
60.18913700746947,151.8689037538365,-0.14158580614427674,5.293457e+07
82.21457941983994,-59.41605853617142,2.7885688694264434,2.0898164e+07
42.38287612725787,-119.36009222352,46.941417176820366,3.1300116e+07
-23.178355659219704,-200.46442383651572,4.36540058958504,2.6315628e+06
65.67255329548374,170.92822638673067,3.435578907029676,1.3172346e+07
144.49367226024242,136.00633261440265,-3.7877810780781065,6.8039784e+07
126.19583028081468,-68.711927027283,2.23813757846946,7.630914e+06
-172.3198013812311,3.672967811110084,29.44657606207108,2.2078474e+07
169.4086813960061,-20.572461906286662,-3.053220179420159,1.866258e+07
45.57846466737766,-118.06501422203233,28.526711089421603,2.0365152e+07
-83.3616983330883,-78.51213863434441,25.918399650463787,8.3666775e+06
-39.99260472927929,-159.42818539031634,28.71324986843495,3.7015755e+06
120.25240790965302,130.08116258474627,-3.319893679240975,1.8882674e+07
84.42187975999377,-174.38575295133617,28.45747854780317,3.0598682e+07
-137.8012890010658,30.176960016527318,43.29300147817257,1.4745217e+07
88.39046793811974,-137.56393360278867,-2.4057176638230464,1.0753188e+07
-135.27076955581708,17.624903300953264,47.141027618893254,7.2985515e+06
110.56077738552443,118.48858069048288,21.50431593768836,4.1111244e+07
139.79968789271868,-103.13948388490282,7.279937259012314,2.1858468e+07
90.27625896725016,-118.57335440059799,-3.0238101971106293,1.9409064e+07
65.15705351011565,-64.17406694425003,13.768793760724076,2.492438e+07
-133.1607025251238,-11.393692825329452,-4.010585961385951,2.7696138e+07
34.13263219781217,165.0878159856037,19.228629229171503,3.044674e+07
111.39168851884557,-56.14012725387266,44.165483006816814,6.8011815e+06
-43.374678393178385,-161.16314728791968,17.453245347103387,2.9658016e+07
-4.30183566566987,-99.87831758893617,46.42199489633999,9.310194e+06
-81.66996652416799,69.58756375796844,38.45924587853261,8.724243e+06
58.82367887002613,-126.82635952295351,37.86714827419494,2.5363412e+07
-96.46677262508436,18.17660383357247,12.934417728150162,8.3580155e+06
49.79201457596503,-158.26116277900638,-4.225741650206119,612905.6
73.4195352525557,-33.70324540865158,20.977096887308054,1.5832162e+07
-134.15903503784324,-0.30174492674422027,25.271637618435996,2.9351798e+07
84.40944055260883,156.051962741899,6.365817685662201,6.0981245e+06
-86.55519244365709,101.02070279403995,-4.117727411996549,2.774075e+07
-118.04751829623422,-22.811062984969396,1.308434838105497,1.5466511e+07
-63.45998659594429,-176.4962060881275,17.408703703052492,2.278533e+06
63.776516665565396,92.24170860972362,-4.490330111769098,3.845839e+07
106.14322077797794,-148.90441729539577,8.343243808180567,1.6934404e+07
-56.01011869268069,174.02894103523806,24.741185808962815,7.955481e+07
30.281735540561016,103.34906939753398,39.25201745213379,5.271522e+07
-164.16241094224517,-76.46121338957039,8.601214056902409,9.744096e+06
143.37960868655358,-173.54363698623268,17.699018630223954,1.932251e+07
126.43355694535506,119.76246729797043,45.066650521705164,3.0472324e+07
-131.15686167168303,48.657431636552246,-3.564965609036347,1.0334409e+07
39.98333296381216,-93.38823069415571,-0.8415278835942566,1.2475386e+08
164.91444247840099,40.51213355371942,42.8832900921607,7.11273e+07
-100.52275549579976,127.68832350607397,42.87587328231951,4.765246e+07
82.64941588773326,100.20506338392858,43.506971837252195,6.0438024e+07
83.44743027538709,65.76932954754818,23.110740450191923,3.1048876e+07
89.71636547790672,64.89485135146543,42.423588804301666,7.364809e+07
-134.40983323278306,-118.2952670478915,18.51264444661178,2.073371e+07
-39.240011253343255,-147.16254293549463,-4.848053265644861,704911.94
-31.621494260094238,157.25932347558523,46.11692844082512,1.723656e+08
53.17489817696293,165.8827166141054,-1.7041483802812483,3.724184e+07
-88.65614062092389,74.40806874445366,-4.173813021482438,1.5072082e+07
-127.46009248981501,-144.37198150116086,42.51020667405605,1.0272848e+07
-30.59990053299032,169.79766457762287,-0.40693218901159867,8.514652e+06
148.26985315606356,-67.27656485333014,-2.239145109631476,1.110073e+07
71.70120528948405,128.00837843845233,28.923658638484966,7.882619e+07
-134.0988390798742,-26.317535597887,7.746146226341695,4.0991478e+06
-159.06350532679198,-83.57540686691826,23.106144603506003,267926.06
143.8275024821266,-55.84572601130293,27.28107754421241,2.6160882e+07
-177.49700836877633,-3.1065755613505246,29.11872242493053,1.4854979e+07
-181.54579370389234,-6.451759971333331,23.86785654165611,5.763041e+06
112.99770199899052,-140.7173925506653,8.022952463032764,1.0336106e+08
-59.157626768875105,-100.45681030408086,45.52846418423415,4.0956976e+07
96.72753063311586,-130.1402629669306,25.275295138349502,1.5956961e+07
-83.59587017891846,-135.56376553814096,43.293817663538746,7.267463e+07
171.44224773039474,-25.023574271296894,-0.78585177175197,2.7297988e+07
81.21329518241504,159.95180729632125,44.23451579821796,3.1263372e+07
-212.04828933895584,0.5054731571556772,-4.790610580932207,1.1531204e+07
84.94687015936836,133.7690623678369,44.73862105165599,1.2512315e+07
119.05386525903185,-39.60011281984714,19.32503521560786,1.7307872e+07
-32.57259255219137,-82.98918347704355,24.298268032272315,7.338179e+06
-52.10676079899736,-36.52777879567515,30.789924286105453,3.5431004e+07
-43.378641904605956,96.34972446528064,20.830087183511647,1.0333016e+08
-10.207689385211836,-180.55394517790145,-4.927549186050852,1.5359568e+06
100.27074888945617,117.65471599000921,-3.7484819076196985,2.5286172e+07
-124.58389575698374,73.87703707738382,-2.0796636607481207,2.4327704e+07
10.611455827278974,-119.90056978755571,-3.0569246964665004,1.4805496e+08
-135.75564043688183,-35.1297555412242,46.40438180460161,1.2652946e+07
50.16692407405577,-145.53124068734297,5.313137479836506,3.2616462e+07
-97.21126721310375,26.97923600799612,1.714714928205943,6.9083895e+06
153.71476229815028,-88.74824740178181,30.0100748705769,3.6458924e+07
49.59992619273811,-83.86236796280704,2.8558472130663457,2.4511022e+07
-19.975515550368243,-167.5926407460051,-0.3623391180039315,2.5484782e+07
91.29418364979534,-149.83842149386328,6.53750470420443,3.2078078e+07
-21.156930943999726,179.12762588787626,21.648691771186012,4.007832e+07
-55.20045528205284,-187.54335804722118,-3.6723096379523854,183355.14
95.0017276083276,66.99234985858124,19.573609085754793,2.4207126e+07
-109.23725822140533,147.5317146527704,24.51948656637019,1.7700256e+07
-142.92217646295825,52.38479220761394,11.306099149324975,5.1935388e+07
-44.426555273622085,-178.5245125070766,47.13067927337758,1.049889e+07
-36.064211796790204,154.40731003737437,14.733962059715818,4.7968604e+07
22.083881213143457,-180.46395175701434,-0.7665137731934255,128268.45
57.183459075228654,-162.5986619073857,27.99201427993082,7.706978e+06
-137.18472279674518,-102.27199825864874,-3.1102917362468103,5.3055212e+07
142.19342120575607,122.44815208765124,31.52478847797891,5.4940416e+07
-50.12913349591852,105.99395322325609,-2.399364637167723,6.2722948e+07
-130.80566916545695,137.13951923763847,8.076057716361282,9.638522e+06
111.07182059656992,139.98032781101767,46.648209653690834,1.3535847e+07
-123.07785161565484,-52.82888543601479,-1.541134867317246,2.5602596e+07
168.49861550383667,71.28629727537225,-0.23457012961755375,5.290294e+07
-89.1718179007838,157.91479942016355,11.319236566787772,5.2156496e+07
-51.90918556293303,-72.09652415097125,26.866700013422083,1.9369128e+08
97.45101182483455,-141.87227000647437,-4.889903006788748,4.593376e+07
47.04600140637109,101.04232852593464,0.36075844135079294,3.6345988e+07
138.7945027458602,-112.56042204248705,25.871536485043887,1.8088528e+06
115.20680960159444,-38.65971799397789,47.35518856783487,5.8704904e+07
45.99377354772497,-90.50310030751912,11.326010229552914,6.272302e+06
-85.19826305887136,28.251596360118157,46.97905620932043,2.0837763e+08
-116.83353119215154,-27.17938768078912,-0.30900117910020963,3.4357244e+07
145.39572491808707,41.98207988437753,46.00317591053657,2.504129e+07
69.06150096913495,-95.52677344048888,-2.6814295523869665,9.1903e+06
7.471126512943016,-107.13659863564699,5.711031379764595,1.4453851e+08
-8.922018889957712,184.97991479110198,-4.325814750512061,2.2036544e+08
-171.76670492979022,103.89667901051473,31.191838979231264,159341.67
-35.447347000669225,-93.77298501170112,21.06402845594639,7.8979965e+06
-8.249218989953846,-161.27574700761758,42.675053005528994,4.159567e+07
-94.05396128587594,112.18752604661904,-4.08282658875369,8.7748216e+07
-164.71175552540632,36.915810705934206,42.99830097165039,3.8749758e+06
-46.800786798220656,-189.83329186574173,-4.930556960543168,59231.855
55.60100160725392,-165.7346791707046,10.396348584976698,1.1273061e+07
93.63700549456468,-86.85063141611678,40.88712052705204,7.674666e+07
75.31442488437108,-89.93754743545881,43.57981865984311,5.71784e+07
20.132068657082158,94.98579925246094,30.868127246432437,6.119464e+07
-104.44225311970045,55.312369349851,30.27953050516018,2.0401174e+06
166.670341809842,76.25866721633776,6.396777053570034,1.8206604e+07
31.20141143687917,-136.07939627634047,45.447150699988484,876763.2
71.80960220471445,-151.64678845392152,45.30150978339163,3.316568e+07
90.06073759966631,95.98984237208663,-1.5868961511999253,1.1572845e+07
-123.13612764462462,141.7928549567427,31.254729363208142,4.0597572e+07
60.465932040303585,-79.55750297820671,35.77465596906869,2.4620194e+07
-103.95005513184292,-142.45825372368705,37.17722208113295,4.818543e+07
-27.90267482796787,-107.96699088452591,46.29228016508359,1.3158237e+07
-58.5122815282495,141.56926934465037,-0.10839691942427443,1.2195378e+07
72.71588225889934,-171.44029814367002,17.53758203949696,2.4665552e+06
-75.912865455213,90.57418398009833,12.956812385566643,1.1072236e+08
76.19401665578374,-38.79024919775179,35.83917323555419,3.7770396e+07
189.7696871954126,32.61384774839493,33.73021619314742,1.0477996e+07
-110.10788583900313,148.158114121131,32.951181386833035,3.122036e+07
-56.75439344779238,83.99055447808911,-2.755461923454858,5.0139212e+07
106.9253034198598,77.58943973208005,45.692773531463985,9.233327e+07
-173.70433470369863,35.94336375684847,39.13302004594101,1.0148852e+07
153.58454390387084,-28.369552053295422,45.782352189374336,5.952046e+06
-107.93876304950774,145.92767708624808,32.96942311742565,3.498407e+07
-96.0842976804101,-2.4878986255688744,17.03776636190168,2.2720358e+07
70.58591978938887,-100.59108425285258,8.85703620234676,1.1090578e+07
5.601182669337447,-106.62892050420889,28.88979409233726,1.668643e+06
89.69752609346693,169.81283041931528,26.474305646971413,2.590068e+06
-88.45876810745295,-160.87499671120148,-0.46594642618713955,4.1749835e+06
-163.8324907794712,-97.15218723224505,23.166870195155983,363089.47
-126.76131917219303,40.29008042077925,45.01174595739052,1.833658e+07
-45.47372583588316,68.82231936724486,35.10486350326936,4.8014564e+07
-59.94482049762237,-113.99580788480685,16.43758578184709,5.1022892e+07
67.09157337704909,139.99744825845795,44.04989634664239,6.27714e+06
79.46935539548315,45.899327045040934,25.74353051991369,3.0604898e+07
-66.3140926998843,126.92651018659814,40.11352243814107,2.5721428e+07
-77.18859519224227,61.84937088237598,43.703864621040715,1.3351378e+06
187.4478119686725,10.931899080146877,46.698058682293556,3.8638282e+06
-83.58580671932182,159.80645907071732,19.672691942257895,7.031403e+07
-125.66830064285661,-60.57218813581582,-0.3326735680465154,1.177677e+07
58.82768835928226,161.12420559862954,1.586452104611948,4.9177584e+07
5.501185519473125,-125.52718952344561,44.48163065500147,4.133072e+07
-163.86577799902278,-85.41257588222075,5.093334329135191,2.0344226e+06
71.85205083122725,17.997126149282167,46.195631506273294,4.3738356e+07
71.28922541392836,158.27682182252528,-4.926051744676715,4.0351788e+07
-158.6491964532711,87.00962938295851,6.047937245863727,2.7752802e+06
45.08989323342712,-125.45378285768955,-4.522454487123007,1.4062421e+07
-51.886574185226294,168.43086817933482,39.7243483347265,2.3740826e+07
81.5442857085439,55.027741988682635,27.61547348449644,6.6812256e+07
150.57196454466998,104.67830930357513,44.217385611428725,7.054169e+07
165.26160826441622,19.867484538648085,8.134689692335058,6.587783e+06
135.02824477876624,66.91207961343753,-2.366891038696079,4.1958696e+07
-52.69738287114802,-94.61747820116571,46.52253638254047,7.9520216e+07
-79.57017605326092,-148.40373852477717,45.45154444384286,9.415075e+06
89.7025162412537,-73.48912321930399,39.76136502709788,1.0841276e+07
-174.72748508755913,-25.53950654516342,41.121977927121776,2.7466654e+07
59.21165598895516,89.94778871786747,9.03164013086128,4.7325572e+07
-56.06082114037588,-89.64047268772896,17.75840991295438,1.6416933e+08
92.40198620849458,-26.286837785447858,5.345532163912576,1.2737778e+07
5.0243798184108925,132.10308032247508,11.17280788954766,2.2045854e+07
-114.0697139291355,-149.4423180187868,0.7910459153824041,3.839724e+07
-92.39097085693474,-160.3731381221459,-1.2019704051318625,5.7439845e+06
171.1535830872225,62.9361904015426,-4.010162668857673,3.6791996e+07
-20.102592976611987,196.88052083148557,19.962119818055076,2.1531046e+07
-129.96823605606275,-138.3522320743894,45.46198986840834,5.882765e+06
-113.72027185059332,-18.747799183249043,9.840178757038501,3.5770598e+06
0.6772155956805932,-95.81857857940763,4.9998263737532245,8.3181685e+06
-76.57025975714976,78.48020641806937,44.08912925554808,3.2102576e+07
-65.83013931782693,-143.77152357413712,11.270638808868096,4.0082464e+07
-209.47500186987511,4.710830999377606,-4.789619585773015,644091.4
4.461985534096158,-177.83943217285156,42.032774455159995,3.82655e+06
88.46486104792126,116.39280616434326,7.218345072227258,3.3543322e+07
152.44372906924917,-10.35521759866387,45.07293940811709,87317.49
-165.5690132612526,105.27750113120311,17.802261180015893,4.0043292e+07
149.86232972804783,-81.76129682323767,47.02491704858744,5.9136255e+06
-66.23502583745255,-88.5461155630562,38.69751846534393,3.1916658e+07
-11.31646756954126,-159.82922128748862,44.98544923991607,7.952734e+06
-53.8394321859856,113.856580019602,-4.274664330063056,2.7298396e+07
2.2435257757513796,95.20852733793936,46.86855085726482,1.8299454e+08
42.403888013284984,-158.2353910481659,28.832655795926925,7.1649045e+06
145.42068056374183,111.90409387678386,44.566342604515754,4.7022836e+07
103.85400856032805,-152.48440825532944,26.35123837537627,4.345066e+07
-122.71983775023357,-104.58157505981266,43.358440458244914,3.0951005e+06
141.12637697442796,85.80047508623966,43.78110605704842,4.510679e+07
153.76834235993175,-44.43715489994537,34.23390617563565,279014.28
-112.80271951987518,92.80710206403728,-2.740088748877686,9.215298e+06
-182.57291802094792,5.981981364772679,29.978073218425862,5.187876e+07
-5.698045610363863,-185.72006657163652,43.77155536039666,1.9057558e+07
90.49764815711734,-82.49347501033424,-1.950171059971717,1.6530682e+07
30.92943607594765,95.94553265329438,44.78087924907735,5.321058e+07
-111.02415961470399,81.52662423882714,31.53461941465781,6.333538e+06
-93.13662879772494,57.60663844759421,34.58451514542033,1.8229638e+07
-143.8000648854189,-16.28630318946867,-2.020719524430902,1.1772959e+07
-51.50954026939084,-144.9116620701169,-3.624323273030425,7.307834e+07
-128.7026108578864,-5.668959950620831,-4.665534131424777,1.3079904e+07
-39.48024479508746,-109.90011265435622,44.57526744654777,1.5781877e+07
-23.864066545694925,108.02780533041891,35.607798474921026,2.4233835e+08
-103.4877308327269,165.0998654714772,20.334618537029506,4.400262e+07
205.81966680247763,-31.008715464749173,24.100691401713952,4.958064e+06
-155.05309235185732,71.20287018052932,35.84823574118004,265792.53
169.11161244387858,81.70994071454015,-0.572990232220528,1.3791405e+07
-38.373604853401616,131.1976825279899,-3.5314560023199935,4.644779e+07
-148.70268444770852,18.92046467784013,43.43937944267676,1.9329516e+07
-90.60711585026284,-92.75139155576979,-1.2679007710946988,1.0019316e+08
-105.53688199792842,-149.208109457773,7.100030482818946,2.2630166e+07
25.085834112658347,92.15725394169692,-4.264086706154425,1.6361486e+07
103.92485759085622,93.3994178285891,44.92783384055495,1.1095507e+07
103.61993574349327,-114.65993795726833,-1.0455666036281177,5.8528264e+07
-31.685081454495133,87.00801667483069,10.956680865412988,4.925367e+07
-124.80411867845564,-17.759120049684867,3.8883855884496885,1.2287315e+07
0.1983529251776872,180.04439681687143,38.10980487942009,1.8645609e+06
-22.384636403409274,-183.6661959840821,43.41350501122083,6.80753e+06
76.9879589027471,-122.87926006967918,10.332170816878486,2.9615026e+07
-65.66825939399953,204.7864207686223,5.133255130734939,1.1061128e+07
57.62410977470921,-77.05516710789345,6.069266744349903,4.8137428e+07
-150.2630519251317,-46.30444573931126,25.68198500562018,1.3197801e+07
125.09637367176407,-139.85078736321128,10.060031674822326,5.5998836e+07
135.23506308232783,125.67161477295747,-2.8570833259547697,4.403045e+07
-172.19432739251147,36.1228735157442,42.68441002003927,1.0515746e+06
97.57402817394927,162.65765440945393,45.45051771465737,1.0957683e+07
28.000380203342786,-70.93568032025485,15.64881814449885,1.8095852e+07
-184.7171349035181,-17.070757474606836,23.933668660850174,1.691747e+07
175.3062648441736,-7.648158160697619,43.59216922582532,4.4530235e+06
-179.77465376401665,26.57593683731801,15.453483051271899,6.119227e+06
-109.74053622801803,100.53663808233387,46.110403247144596,3.0138104e+07
39.304972926307954,173.03559751346114,42.64665409187006,2.8061505e+06
-47.71274926606171,136.34632527047205,32.56751377827841,4.853882e+07
108.88323292686465,-17.70976909790889,-0.40570547997241846,1.2021443e+07
102.12183751867184,-123.5312240287015,1.7423107375815983,5.3234724e+07
29.438915745559427,-96.88587056133521,29.112171126734125,3.3605512e+06
-138.25005918395092,41.72543259633915,45.72339798309355,3.7142044e+07
60.328237453278234,-71.48975623815701,45.598847726281406,1.1764662e+07
44.19752754388975,156.94255894801938,30.934809085034374,6.8385635e+06
-13.748805895012367,203.57071003687707,42.054200322530676,1.3621612e+06
107.57791913007492,8.930812342996916,14.221297408007661,1.3153683e+07
-93.09644200417446,-162.97166643086254,-2.0624583351779204,4.7100315e+06
-37.94024876673956,92.70524547471126,32.36504892677578,4.429361e+07
58.65449876376749,-91.85640806050556,44.939729395405706,1.1469005e+07
-19.267268072792263,168.21820775160825,11.021747897807185,3.7161316e+07
95.73242451287172,-61.80157234705436,44.10461080450747,3.703589e+07
-15.6930040715622,-87.09753368953722,11.705525959730284,6.3264188e+07
142.93994343964567,-1.243921819237869,46.576453317364965,863959.1
-97.85367412706017,64.9173389429211,39.89435896337892,7.91177e+06
10.932756923826304,-175.17361691281388,13.56816598682289,6.428754e+07
73.56655864782522,171.8030176104902,45.211813975946136,1.9647796e+07
-62.72562037107028,-148.39948480312324,-2.476799145936867,5.824497e+07
-39.392109064909164,132.41577794235133,-1.3025536838854763,3.2742098e+07
-60.12305186331889,76.77145882526099,12.950269802993308,5.6992004e+07
-108.87561926306996,-86.37358420032527,45.752670518408166,1.2064997e+07
-70.05327863681458,96.68632903229167,45.63141782889873,7.868249e+07
-181.333047420795,34.92902487159702,19.391074109004244,7.751402e+06
-136.795336882089,97.04322976511236,7.247948463019192,5.4215108e+07
-100.49812995287331,-60.83639024585298,20.888633491007106,1.912605e+07
-81.9005030797432,-78.64000685229001,14.476716685452736,2.789871e+07
109.21700447327243,-4.841581316631249,-0.18558045524039102,1.5729819e+07
-140.7633468002553,111.08978900579672,-4.588659964370465,5.9634635e+06
151.4793743210198,-96.81797758903085,45.48225344387974,1.3523907e+07
-12.294918334652493,-163.37495425541363,46.578192209098944,6.5915165e+06
25.382597754705046,174.8236215241061,-1.2369955074980412,4.368774e+07
53.141541609078445,67.77751052749369,7.444003959283156,1.0038794e+08
-66.93915326312984,-103.67489606241602,46.455192755441445,1.4788899e+07
-181.99277131929176,59.52990938321744,7.508652306804967,7.842443e+06
2.3253130931720705,-124.40107482775318,33.07465581220435,1.4248552e+06
-169.07369361435627,43.95725560790004,18.780248963434257,7.3087735e+06
-110.98541947740254,142.9767520240223,36.53980976344506,5.4818812e+07
64.50120564929199,133.3593974254723,43.250063900054464,5.2388355e+06
-163.9441716093171,58.50305315771874,44.31737224528744,5.4495885e+06
164.33105194821945,-106.88624291483725,41.04954360645293,1.5852392e+06
-193.05024196038647,-19.786633033730794,15.3434077669327,1.0628983e+07
-48.059123641590304,-149.67186281323308,-4.527049131099262,4.4011985e+06
169.95575040238697,-14.692716392044218,43.34225367650392,34133.9
-128.39739533800588,74.04263553611969,-2.0036710011426253,3.9704164e+07
108.52490582841386,46.665291183868305,25.52456147481559,8.985162e+06
117.49419546202552,156.00864608837776,17.854496791479892,1.6350911e+07
132.3265371861815,108.50766957449162,-4.385648513941806,2.510307e+07
-82.5021683273437,-77.51376360355604,-2.0955865775563582,1.249179e+07
143.8922865432001,-120.84566300337865,18.538929503125747,2.3789868e+07
-10.098844239105972,158.42040302435862,-3.363454937782025,6.888401e+07
-132.98317909213864,-105.38622096915132,31.365966776176727,3.733497e+07
86.62278892054889,-55.80818129292345,9.155359778426881,3.4055796e+07
-78.77079179604118,-139.8786068316944,44.58689873990726,5.6399056e+07
-154.17294076373088,181.67025807443815,20.581028822227218,7.5131736e+07
114.14234731189134,118.00965583912398,45.93848931112749,1.1397241e+07
128.57288808829935,-82.35232648619046,-2.168621097108854,2.1413378e+07
150.9504208149234,-47.21469903988597,-3.190486541740968,9.484018e+06
-64.55484353279184,95.31331897682458,42.98867021523167,1.2432493e+08
9.325634660894025,-79.47425459987014,0.3480365550957192,6.0405348e+07
33.11711555364596,137.78666247392823,-4.98770626070277,1.9648232e+06
112.35832734910014,-63.24343827654391,46.2481537297207,6.0154035e+06
-5.060696875263034,185.01108924024396,9.660781939150906,2.752543e+07
-90.5913552502246,-150.02826480227728,19.39276778813,1.7278754e+07
99.41375532399019,-150.08901873149932,15.119176384790116,2.1940916e+07
47.63461784426789,-180.67229270382595,24.94144486552603,2.0082696e+06
157.367370747194,-94.68448318840306,0.4001320163175164,4.2634732e+07
89.79473154124804,-73.0008041370819,28.12905682017339,2.002734e+07
114.62673255259995,-59.22946335405723,-4.483986986281986,2.199383e+07
78.83847965295769,158.2338590209,-4.102606306830461,2.1636492e+07
-82.03079384040595,51.752607909836684,45.60286612052546,3.5171158e+06
169.6724124858418,-2.3759061219020907,-1.81056408971078,3.7673802e+06
173.23117633945145,63.283982796335636,20.75309679664031,4.572608e+06
194.234892567195,-40.666955888797645,40.90243021993777,6.070225e+06
-115.04188937371617,-90.6979950992462,-4.524744037385659,1.9119212e+07
-110.7330946329082,-135.52493706236305,21.23174108429344,7.180434e+07
82.02572516965915,-169.9532020112776,46.315153275748294,2.5713762e+07
94.75460015654647,166.05353664183173,35.40216194769217,2.7867872e+07
-61.234422484593495,-118.94498273518924,-2.921881255310174,6.1173995e+06
113.07213273587774,56.78875761504554,27.114101672780073,3.8653212e+06
78.06899211387895,31.57011770682567,11.746599899638667,3.9717276e+07
-160.8871111014422,-10.289633934927167,-3.279788008655198,1.0661282e+07
13.561355761417133,103.68990262147008,12.041106320846712,3.5280604e+07
154.20147905874268,104.08761356424822,47.46999976107707,3.0281942e+07
155.83100353589924,-29.643364589317088,-1.4286268039340642,2.4123008e+07
11.085955034595031,-122.8272738700653,-1.3974511180364129,1.2619034e+08
134.45845999332613,107.1496684009698,23.800883218267394,1.1932535e+07
7.792337555245098,-118.83390443016046,29.178443181740057,4.5630365e+06
137.3726555319534,43.59938385331452,29.64182348572467,3.7650424e+07
126.91963933959534,-109.12037885460457,-0.9387121415111235,3.6261468e+06
126.19126293947801,-93.72826476022138,46.60427549990653,6.57268e+06
119.89487582320044,-132.6257768804244,25.522000033488908,4.943267e+07
-121.16286728293589,140.0078273920979,-3.114386608346258,5.451868e+07
56.12618337421111,84.10001789944516,6.480318915454536,4.9114224e+07
43.86573057846152,-106.51942565645328,17.221027489781886,1.4148821e+07
117.01886069194768,88.67073960978365,36.7278300495107,4.7105748e+07
40.906379906181115,-71.89895712481336,18.667523789943605,5.1083132e+07
-119.29528658431407,124.05229317415478,8.827727568463857,1.2981324e+07
112.08454739978185,-6.658138074544155,46.54870175409789,7.5329544e+07
-70.96372681105373,-100.05480924512716,-2.989192952238677,9.67424e+06
-128.50987730851406,150.29170852501892,2.7757502429798837,1.514116e+08
-47.07676673963789,95.87809375600938,-2.452462456385591,9.681248e+07
-96.00379971036993,47.70990501349297,23.58590438538269,1.0230257e+07
98.21569143845988,34.26100780808429,-1.428261885685533,1.1925948e+07
76.75986656672501,59.6542809649867,9.623703800033038,2.71901e+07
183.6810653497318,-7.332455426742882,1.6559934189502572,3.1800128e+06
-108.0415177027045,-17.99310074853716,21.047336647846606,2.1140012e+07
51.09996222126409,-128.10655160767467,-3.9659378432609,1.0119908e+08
-13.874172185935208,118.89015992852109,12.829553985479457,8.0585096e+07
94.94436484497328,80.12624145912599,17.03308939229359,3.457219e+07
151.95895616857484,-17.267205379285798,25.26732058008573,1.3966604e+07
-111.18401046355952,134.2223407258603,39.247466406843024,4.491401e+07
72.96625975537177,-134.33289368037686,47.0648743606143,2.0650044e+06
51.37347900376875,120.89437595646655,-1.1934715092611232,3.2424176e+07
145.71781061606282,112.32892279462459,6.983174495808644,2.8539832e+07
-32.36064565609988,127.57078265488781,-2.0883819967131108,2.8666886e+07
-9.615442070189005,-174.36300788759823,-1.548814212983038,1.1283494e+07
101.07844848927817,-13.232297074430676,-4.178608310547297,5.1565228e+07
136.70757355885195,16.511575593674394,19.196885917410313,8.969702e+06
114.55623113084522,-62.47112575926269,47.37000318990535,9.676678e+06
64.911341625256,-105.76467816714202,-3.7759603919676046,2.5963314e+07
-25.99644966092862,153.0760256945564,46.7341423300724,6.2898732e+07
127.27113666917154,-137.2008291517182,19.380223144871646,1.6283894e+07
74.89826278092579,-59.15835581439529,9.291749909224688,5.6853372e+07
-109.91474665798322,-101.26179799241407,24.704057315851355,4.1648808e+06
-89.60217091179169,163.22739853289062,21.94961505992916,8.844314e+07
105.57876251151754,3.647987312041522,8.594023971507154,9.674322e+06
61.73396856629694,177.34808672433547,-4.514835779086558,1.3551848e+06
-74.52315441761806,161.18628407199293,-0.7756584903378387,3.8577748e+07
-126.28714618539604,-138.28142273719925,-0.38669916039214947,1.4037384e+07
30.744075420002474,178.35619601995484,25.251977219306337,7.4081865e+06
-130.27791883194402,-117.52281828824495,44.50211221890477,4.4471395e+06
-91.0788854407676,-46.6964364393848,42.78301432164314,1.2394281e+08
-39.82179089835989,111.12133257725918,21.18182329803074,4.772087e+07
-159.6860668508536,43.525593575950836,-1.2751139437254322,8.3523635e+06
-32.06821959471512,-102.67916314609315,42.81110135775991,3.3071384e+07
163.98791916098799,89.55333933448247,24.163987881107094,2.2741834e+07
-129.92316176521535,130.08401462104507,13.607303173800876,2.0090472e+07
186.074187667331,43.11391534147515,12.834756073243767,2.3478034e+07
118.50711711216394,-0.3928258788224923,44.22744749567686,1.0692025e+07
61.706202756367304,-117.87714210324694,43.76805947244443,7.035184e+06
163.40434083474412,8.181734664216606,39.46002479854425,3.469853e+06
75.73048840757531,162.18242498617604,42.53638546896851,3.4645988e+07
109.84187074759865,-143.65617114469745,43.689597396906805,4.727225e+07
55.98018847696278,50.2605328155322,21.399027253960817,1.3435789e+08
-5.390607224307075,117.40581266281589,46.94924547039899,4.280152e+08
-134.2271701867533,69.96915507558924,3.809083745129616,1.5715815e+07
109.92603786557788,-103.83797029684538,30.75453200180077,5.40344e+07
-25.343046452014562,170.26283376599037,28.415430416915754,5.631981e+07
130.9162834813,124.19146140080198,22.397959475182112,1.2857546e+07
142.04969469327,-39.97242399140109,25.869018762696385,1.0823891e+07
-91.68501105761835,137.96430620653314,-3.010761434291833,2.1102288e+07
-91.75531617757271,102.62929836808803,40.83566448763407,5.78669e+07
102.49023126972435,153.79048079713954,9.284636457018282,2.0571166e+07
-63.06724391917976,91.80061265662465,27.82600478225784,2.7588104e+07
-119.82612163052276,121.1799641303715,26.334207204118847,2.5142088e+07
163.71329684236701,-68.97810352143637,28.523228051469026,5.1624704e+07
22.163400623365675,-159.71142407511857,41.38449839547936,227091.25
130.124859871725,16.45882082873098,47.26665481840398,1.9893826e+07
-25.823307257295227,-142.2434426682351,11.766900283268374,2.030131e+07
-61.93001493621574,-132.45892510718434,47.28723522514526,4.8831256e+07
54.41721608465082,185.78107927798465,44.96061876764971,1.3227558e+07
-172.36888320440795,-70.48464163802794,13.909227801168814,3.0829218e+07
-180.1300920917941,-46.7289590667377,46.112633204080645,3.4419844e+07
-3.6196092004356615,-101.51653626871307,30.033880002964345,4.1298856e+07
-6.43325640801001,-118.66883126683736,44.23437641455839,2.1342648e+06
100.96229417198032,-146.8199220870797,46.08727343921288,1.070249e+07
74.80815411970582,-168.49410173953746,8.700096897169773,4.8980635e+06
92.07290156173082,148.7673964467224,-0.0445159141038971,1.6549217e+07
-156.26159540798716,104.36452344904302,-1.61973785114544,2.721815e+07
126.61376980112897,-135.04041577617195,-1.8001110386514423,5.4727016e+07
128.09241004503042,-82.97559356493056,-1.803385597615724,1.6507425e+07
-89.34107768840805,-39.97777105546507,-0.9431749726575474,9.815199e+06
-52.603669533079454,174.82006145842428,31.7608946722464,3.628463e+07
71.52844654717364,-160.64772049842497,25.674461247796668,1.3557141e+06
-120.1585427500582,125.86702022910373,32.36019174489021,1.2779194e+08
66.07861630444637,-141.04375549678062,45.97067111118547,9.904711e+07
-125.58473692281567,133.35588774271145,41.9225887343941,2.5070982e+07
122.59540875868879,-121.29913258772008,-0.415826741569556,9.3274504e+07
-86.34371961790697,42.1933981609119,-2.952430076906095,2.8208202e+07
106.54177943720185,34.55744083681685,-4.40562935284577,1.5216852e+07
8.976522776328352,188.07771088971452,-1.0689912553674086,1.0275664e+07
7.512522454056636,172.68255418200653,-2.94731312679461,2.1951562e+07
-178.95762095265357,-2.773258703555058,8.965718615492182,3.849099e+07
-126.39693103358712,60.4624679701447,42.91533785101339,778074.56
-106.54148890650583,34.716855872893916,18.653751537164535,2.686387e+07
139.40446913907005,-19.99064373764378,43.68982108463809,1.1320729e+06
75.04007269397778,-130.09899174988618,-1.4476020497663398,2.4278432e+07
-10.98801026363401,-84.73594197676994,0.01570525562985292,3.48355e+07
108.40075630991402,-60.10162687892915,43.32666213556416,4.9121275e+06
-145.80190501272327,-87.30238428249669,21.093128632668716,769622.6
45.544159650569554,-147.60094140589774,-2.9856916543219554,2.0623066e+06
-5.522593159013184,127.27492094629383,45.4360735734982,4.1059756e+07
109.5039235221048,83.82535236807723,-4.753569281719655,1.2222771e+07
127.29770948208187,-100.86879673438216,30.574699951644554,4.187791e+07
149.23177101142596,81.58623461782923,-3.7266915783399166,1.2525512e+07
-3.23219375864997,145.20913577618978,47.326997924630135,1.8106736e+07
-103.39062269617146,-147.75088849893615,25.26046480563775,5.4609996e+07
-163.8945812589638,102.4026143737147,29.843752594298664,130466.13
14.784741926889154,205.88474228473416,-1.341376514372818,2.4453686e+07
-24.65480877508574,-52.63947635490362,23.375879130308263,1.1949236e+08
4.871890002268771,-180.06038400026515,18.040679304803977,6245.069
191.5798514171201,-7.8697713333282024,-1.897469777817645,6.311228e+06
115.60533251120518,30.680073364009843,-2.3881828989128953,1.9795338e+07
4.448542278100319,-166.40098250435267,-3.6251225875104685,9.82e+06
-95.096877512941,-28.95818835231148,-0.04186582903498426,1.8589414e+07
-96.49479655249374,-32.139621675900855,41.81943859852106,1.0083177e+07
-76.40759677758089,89.44964489348075,25.954897080649495,8.247705e+07
-54.21001529217588,172.81212270758158,25.585622417410754,4.6443468e+07
-113.32370318849912,-69.4350471014697,46.99042726933715,2.3805758e+07
40.197073168674166,101.62224607858042,30.66377110362093,4.1251212e+07
-99.90354949081875,-122.048946091645,46.00595088148254,6.587354e+07
171.2335453548249,-40.01812082591056,46.54550837712273,3.2200214e+07
-129.51569019434112,125.5812151848275,10.514467696522749,4.633376e+07
164.42502533524578,-80.14821054164628,13.814458815872179,8.184975e+06
83.7969821319736,71.17862643814289,3.1931060540167984,5.234043e+07
-6.485867482794475,87.51477085398778,31.440653939089337,1.7834616e+08
-120.50766546791502,101.35995124685923,42.64462491421998,7.1486415e+06
100.71055052265012,33.383209588122924,43.99221571127969,4.0061342e+06
112.44692280197489,-74.16035497230203,9.063967304191758,2.9753668e+07
98.0191092704556,-111.99605417768716,-3.456744366669848,2.4536226e+07
164.93492744321662,66.00174442699785,25.760605474110847,2.2630538e+06
147.79103462683128,28.595359567979727,-4.514163860263936,1.1588903e+07
175.2558652782489,4.511595081451958,46.421198456755405,5.424511e+06
-127.80446288565413,75.92587637500367,-4.305617509594692,3.0492528e+07
135.9155330015982,26.3395965093068,-3.697929098688823,1.2890325e+07
98.19715231722876,-69.41304803994754,46.53427321382727,2.9469884e+07
-24.940898755409478,177.5959374061697,-0.14593697165656838,3.066632e+06
-86.29405514431565,-154.118980251151,9.381979005060527,9.611928e+06
-95.55134281416417,137.80397220404757,0.4840854276320137,4.346181e+07
-120.55873772095279,-137.7613022252167,42.93680599859811,1.1424417e+07
-150.89802429317183,2.9520655854949496,-4.015662902422187,4.970945e+06
-182.23363143029962,-30.968768939478593,5.797393977189248,2.0910254e+06
44.18665980941853,106.76649864541122,17.552249825296485,8.765906e+06
85.18469137656962,77.40501689914618,10.578667143256737,2.9312892e+07
-114.2690969861716,-56.391783674478376,30.502714300532617,1.9811798e+07
-163.51068030056578,88.28826016784893,-1.0288047204877273,6.233925e+06
83.19581904402389,-55.04799201449757,-4.3429674497888975,5.3190264e+07
-167.45955476425058,13.276553319878758,22.280993204224544,1.9600838e+07
162.04809615169398,51.159653900943226,-4.57961787105093,2.7297082e+07
57.90040884250982,-165.83133082893826,45.91148994839452,1.3726159e+07
19.93206684382011,171.67957781295866,-2.418846561614571,3.6380532e+07
-172.88109130311034,-13.866919246632108,23.773316632139245,1.865719e+07
131.38513453477645,-62.28498298346577,28.763328019968228,1.0102023e+07
150.29316060039844,81.14300436653213,39.15056884141994,2.400837e+06
6.569385376883474,-179.59984695555218,-2.270569188080626,3.7530578e+06
99.41741165308059,-151.01062202569187,22.806960212692697,6.8426664e+07
150.471989163672,44.78890519266275,-2.714513294502147,1.0354093e+07
141.78544443313217,-104.791235518952,26.79247124485605,253864.06
102.00861357252552,136.1538164647593,32.36581088630203,1.9909194e+07
-42.81162484764772,-129.11500537979208,3.0009052494741404,1.5218875e+07
164.22672453605992,-67.5904705344449,17.89003867743978,6.0317255e+06
113.21912217895613,-49.316001478347886,46.93614471429299,1.1662998e+06
-137.84834440139397,-25.234015236831596,46.542349169356555,547762.1
-40.10292597107676,-155.04792027655594,44.47013430788886,4.1574935e+06
16.29560561571239,-149.39311730359907,31.90919797519107,9.8677896e+07
115.05337747639834,67.37189528440399,32.820231755005594,2.1317118e+07
-59.16970753235003,152.84349331780408,15.588371042515789,2.8539834e+07
-130.1013752234649,121.68834694187598,34.73373386848002,1.2588418e+06
-124.31946661781011,66.96161434971458,-3.2673576793725996,4.916139e+07
-97.53161267028743,-63.68400196800903,35.37672694938355,7.139508e+06
138.46238652426553,14.39067488139986,-4.6245517395752165,1.5425608e+07
160.73372523984443,67.09574762904015,37.526695090956956,2.6036075e+06
18.53716194587784,-202.34953216859856,-3.8964640215245963,2.1893008e+06
114.12735445737161,-45.806788139029436,47.13280547814054,1.1743925e+07
-174.3683944368705,-2.523803867355383,47.02910822378493,3.727843e+07
34.980424853049584,-205.62071268900928,31.605502366631853,1.8095778e+07
-162.53084922415422,21.03903344493159,-0.770521506086487,5.487067e+07
156.05463556698334,-5.2038942217581905,-4.591456412869882,2.0482098e+07
196.09966487805156,17.790413989932148,13.664472384459224,2.3329026e+07
-51.20476078191331,-94.77025024479566,-4.560607761089292,4.7364108e+07
-96.80441584458117,-74.6694951946578,1.0617771400461313,2.7548928e+07
49.04998239466232,179.5372109489628,43.69669190039201,9.051045e+06
78.87914164717671,-99.34919089780783,45.35785062441451,2.6430534e+07
-93.88495565731279,20.950534137760684,30.91168324912158,1.6347651e+07
11.991512003666429,141.92424195209753,46.14981120865266,2.1936616e+08
-85.66573151080857,117.93456971011176,29.172387878983443,2.782219e+07
-167.94625555158953,-19.366747869452013,16.976035991128153,8.748059e+06
-129.06234350658255,-102.29639364825282,10.835065897334273,1.45717e+07
192.98396674844884,-9.923951381289612,28.28661817405323,3.3538578e+06
40.6535672139662,-158.25725858017785,42.61940274604943,369320.6
-76.97572068562465,-88.41927319144811,-1.4491817405479606,4.2932616e+07
-89.03581331370306,90.50514672580806,43.35897458875845,5.6596052e+07
188.89499663100366,-17.226006748061167,-2.126198898617378,3.0627028e+06
70.3168369155033,65.94966307313297,2.087783952335225,5.028714e+07
157.9579632360809,85.58895763576766,18.1286894329574,4.0242744e+07
-154.79579531176415,-33.11430121161635,45.29675180647643,1.1281217e+07
-119.22164765093925,35.645089129575354,-0.847043029045917,3.3158722e+06
-4.744795782880345,-131.1029035000745,-3.371980794777229,1.8616876e+07
89.17615459102797,40.59793647590175,-4.058668120658258,2.0522764e+07
-28.2495936400571,91.80584074014479,44.522380191315854,3.9975716e+07
-31.4538416018803,-97.1306925151832,44.61467451919283,4.005821e+07
-98.83057968226201,-69.59437190311851,19.883759598679433,8.786364e+06
157.5468760203011,-102.39568864342851,36.8789374715817,1.3347015e+06
98.68320213072161,-50.23157023318066,-1.0268797531905447,1.2327009e+07
-180.9088225943224,54.8017434419599,45.30066136299774,1.772057e+07
161.65251853327817,-0.5339651376887105,15.582249999399718,137390.7
178.23772306412388,68.03525942763548,24.273280403864494,879790.3
58.376113459856754,-193.05711905661016,19.4830243523901,3.2561274e+07
114.72243490052335,-145.20077779142827,29.87075125242462,3.2475518e+07
-44.48971897815551,91.23027592983908,31.87197170231864,4.317773e+07
161.4322110234101,90.1942559157331,9.079240445977224,3.259959e+07
-195.02460357020172,-5.113357312506679,-3.927108658415179,2.0625142e+07
18.957224672267614,-209.04866950494693,-3.8137462835822262,1.862248e+06
-79.24211025318496,142.13202758539956,28.153676060989135,4.8268412e+07
-90.25472339538038,118.59334162389143,-1.7848053842869112,5.6019016e+07
-29.351802943252125,-91.2776062123553,43.84084675505508,1.430722e+08
54.753329109312745,-114.81382679717348,43.78758327911773,2.2096992e+07
-108.28684887896121,-147.20679340987905,8.745233925691359,1.8192628e+07
87.89270758549833,166.14648991332018,18.937666678841257,1.695993e+07
-54.624744231804385,-138.26774824471977,46.685812766469645,1.1338861e+07
173.4206053357932,-53.389590544687366,30.58507884769547,8.86985e+06
11.200449179663053,-140.02770929098114,46.39486949291587,8.693732e+06
131.14916536829003,-114.32223626560899,2.130925858694754,1.5114503e+07
-20.528937991108222,-157.25788919181483,-0.9854946501942363,1.9303524e+07
104.75246807432768,-102.24047323269481,46.73366806151925,1.6894173e+08
-103.02039655148975,-140.38274603325823,21.59176410779812,3.0810018e+07
2.0683861986123873,-144.3746706968925,21.35180611188796,22180.113
-88.94587300189467,-43.91601007482217,-1.5332021587023972,5.0448916e+07
4.834836340878297,-131.49233659655053,-3.8758585582913843,5.344656e+06
-78.29529472223996,-124.64798861399233,29.19198186410881,1.6472827e+08
-174.88115640407565,-70.55617824631292,43.511865333709444,5.3525325e+06
185.62011635913206,-22.932763268636137,-4.5233370377989415,1.6064586e+07
-55.7820797602196,147.9031634849324,21.70925663723577,1.8374298e+07
201.46303539346718,-77.52598690820429,27.58619841378848,2.3108616e+07
-44.847691886239716,162.81365353055025,46.58509842526765,4.694507e+07
89.69318690317937,-152.18629436852964,3.133723787066927,3.0979706e+07
101.384181565667,42.2837044154611,43.60034313545957,6.6335812e+07
-106.02885094900076,27.02934515003409,26.16458626157753,2.9407572e+07
24.533738097032142,-155.368850027476,46.324138606901094,453747.94
-126.24268123051607,-98.32654471710667,42.6171833842462,8.515032e+06
-158.64355741714428,-91.9917371909084,30.223408413385656,2.4080952e+06
23.780616285072767,-108.26854265905251,-4.002209874361933,2.3120018e+06
-2.055128325721057,146.49081512361073,15.147654221733102,6.3498572e+07
-108.55994028173731,-127.77015998734224,42.708548028337354,1.4472543e+07
102.73891832885067,-9.316409154172732,26.962573637662228,1.8606772e+06
-127.87203621998255,-27.91947413755267,1.824438789634745,1.3730052e+07
121.05485983483038,-142.0396861816211,22.757417720869103,9.476879e+06
143.7991935687059,40.558034611843425,2.8657861016628514,1.1699095e+07
91.4780010454943,55.28464175203277,47.030314142844794,6.4273904e+07
-121.84140075140296,60.74091211997296,27.952133111467795,8.3789235e+06
-203.38225348488095,-4.004364971474729,-4.450172429445658,1.777622e+07
-63.99957051334161,-68.33978156443288,19.601556634894383,1.2622764e+07
104.57529797305477,-57.32208801204459,44.7706048865868,1.8983634e+07
108.89111362680677,143.42759788587267,45.924067091928954,6.8702456e+07
-114.83086565930508,-25.66197750768964,45.28462902807555,8.96868e+07
38.85123287821966,88.4309886070908,-3.637610263401636,6.3445372e+07
-184.91880588484662,40.10241622427273,-1.2508128296694148,9.75469e+06
-32.781719316212445,51.21755615144116,0.5365651588728202,7.507769e+07
-53.426530894499194,-164.00363665163016,-4.40469345893696,7.624785e+06
13.734742876642258,-133.7998658390781,43.145683513037646,1.3810512e+08
-108.60547622555288,-21.7436594415133,44.17252641819346,1.2191277e+08
-157.96984160521373,-71.62684632672335,-1.301359969445345,7.297317e+06
-92.71063145787257,-113.15253240379003,-2.746568507155447,3.007566e+07
-22.58912222602865,-123.82081187756633,44.20520385445077,4.0648056e+07
-16.77420012450861,-203.97728200979557,-4.3999704957752765,8.696711e+06
174.25293260000922,-23.46844932942028,30.184144339942954,8.9329e+06
180.20653466813167,66.79039061968734,17.22565742057896,5.4397165e+06
-27.186169681906335,-175.34135493648859,26.89132784481755,1.9708254e+07
129.65361115271787,-118.02248388876183,-3.3653948082261045,1.8404349e+06
-132.51044288445524,-77.37016758205442,44.61771612209301,2.3945512e+06
157.1430018769799,38.60505999173205,32.15138163884051,5.408925e+07
80.89127807726959,-123.23878577165209,46.734775202085345,1.4132992e+07
173.00799577517137,64.6317120374045,1.9525857108391094,5.833988e+07
180.4491290291857,-8.206569276108638,4.585953817156222,2.809484e+06
-161.8509910637611,67.35123952079255,20.501427613317304,1.1538448e+07
-20.515672137811407,-183.3337371891937,-2.7483942239492998,3.2052874e+07
-180.91030816604177,31.079989417247617,-4.064077680731836,8.751771e+06
97.48612287784238,140.99886725967758,1.1127078570187532,2.8093916e+07
-144.08607109047875,-114.72819849699897,22.996438429991827,2.6246542e+07
-140.70264694461179,-4.650631568724322,-0.9433911642071378,1.4423877e+07
-95.83473428260768,74.1489176378268,45.837727102899706,6.439491e+06
86.42644609757298,140.46455434926446,45.36449936647996,1.3323905e+07
104.66780777700404,-4.155349783947315,15.756525471836667,1.744455e+07
142.02826317313168,-119.68340962659406,3.8057475797012543,1.6579967e+07
66.67433907086797,-97.6812888329963,-2.0014171297659837,1.0935931e+07
-71.97457790045101,-138.26437523436078,11.66053945554276,1.7461704e+08
-51.50023892850467,-69.81252558643791,31.65813668869633,3.3131272e+07
-94.34061409462768,39.17081937880508,32.34957429790493,1.1364921e+07
41.28243384317972,-77.23376734567145,5.227541648367756,6.0809148e+07
98.47079438173557,40.09149124851433,28.7725956443385,2.4905098e+07
109.0508224765473,37.609071787340696,46.25437058075306,5.101375e+06
33.974256621698686,96.15872665302385,-2.6131619995367923,2.6113198e+07
-110.95846396041077,-146.25887164584486,36.058793242539664,1.5106091e+07
155.683846289092,-56.820430364787455,41.3757468333615,2.7081048e+07
-47.97388628138964,101.66528303701017,46.31089768755879,1.2746731e+08
181.03593541813058,-59.75899640300398,26.830895060679865,1.4202709e+07
24.128100754087086,135.77477621778382,43.029455730165196,8.3360155e+06
-147.87670033814052,52.92725632946849,43.03026112816228,1.3091803e+07
-87.19682372792057,46.36720281643636,-1.1104409444358638,1.7028784e+07
-93.53916857932427,69.809003147451,-2.1130783040260397,1.1561349e+07
-126.81813180288356,-102.25814256266824,-0.822383125497999,7.0156525e+06
146.6127742122303,113.06010324920487,11.899228027890118,2.385913e+07
44.98643931429007,-135.50137212393855,1.6314682430100413,1.5174895e+06
161.8141841629178,-23.746431164724555,8.312577112715898,3.6558984e+07
41.841929180554644,-131.92828962279236,2.8945715340140357,1.8769654e+06
99.44797218875146,-14.326192692043264,8.115846237955697,1.6651079e+07
90.13704211017557,69.97279246534987,14.933353546262047,7.66292e+07
129.84044295580895,82.15363271244769,43.455287265934395,2.868192e+07
-84.00153358470507,-63.08020365495611,30.01926417019564,1.817085e+07
-62.270164146454334,-198.5845544326558,0.3806295983438961,4.7703816e+07
125.88378665643091,78.82975595763122,-4.356312811468661,6.5079685e+06
42.90637828458347,-104.00096753353263,-0.27651614035478733,5.9661876e+07
20.421973097878094,-179.45168320711272,5.27015982104218,34841.13
-149.37997288299846,-105.31074698884922,8.010723876602489,1.7154376e+07
147.7030753829074,-156.1018917118837,30.82511741896866,2.9096272e+07
-126.13894795702583,105.99308737149528,-2.457403847056528,5.961391e+06
-1.5657399128934344,-168.33712193316745,-2.968923661272501,5.574485e+07
77.92468985935068,60.240013721147136,9.42149874001821,3.3398776e+07
-183.9623844196877,-16.630010668215533,13.266796996172207,3.3464434e+07
-109.12940765312322,153.04433302233036,22.599261969704465,1.392602e+08
1.0518663331879452,-101.69164884392436,8.783065709282745,1.5684815e+06
90.19547097459315,123.44200223863317,-1.3533338674343693,4.639803e+07
142.04705128397404,50.681420522962014,35.67500200140235,2.205042e+07
-25.20341202225606,-173.5216363398083,34.67008441852532,1.4691211e+06
-118.62718914703423,51.65889324444623,-2.550152707416596,1.7941774e+07
78.79367127112448,158.5243074087345,-2.4332522816291844,1.6663773e+07
-67.9532225347962,-136.87366995657698,-3.800304781030264,3.683451e+06
86.56046085646352,-23.533602579373536,19.80598542441161,1.4386957e+07
119.95538493974925,66.81997166370957,39.29850572236315,2.712298e+07
-120.1582515790816,-116.98397922439396,-4.908507960914397,9.995333e+06
164.2261093298428,86.22356503058768,29.40188916278816,210909.44
-162.36777645877865,-63.84500573628904,6.227560577248241,2.6769122e+07
25.43634578908464,-199.72704162261454,29.74682055460088,9.837623e+06
3.5278635254575477,193.5484843321188,27.230962836978833,1.1273849e+07
-18.82892396520728,-166.94656187128453,23.28708532805397,55012.0
24.781409051640765,114.86058454423596,-3.9253481891773765,1.5011863e+07
90.77494369292532,-162.93184897490107,10.119155881216633,1.7172716e+07
-100.68954914777375,76.68308550371239,44.74672293190599,1.0073109e+07
160.13094787224645,81.60422809658013,34.92268895672953,319896.5
96.25101841894082,6.197068872591672,-0.2575007999877341,3.47341e+07
85.63282721996421,-48.51380100175024,46.792682974857094,4.4328564e+07
-21.803069469073108,173.83454324855586,29.778605447746543,3.7068336e+07
-32.522570020901355,192.04870509981873,26.653076013086377,2.6751422e+07
168.22882472505228,64.54641637288086,32.107530307619164,2.9470314e+07
157.1775287923076,40.63433904467513,32.8719733089735,4.5359596e+07
-37.48172375087944,157.89582743256523,11.306996808800339,2.5983724e+07
177.82549101390305,-13.950751348893476,46.15797023757688,17095.459
50.7762844137244,-53.30503803384363,25.233647248016883,7.917403e+07
118.5105087563229,-125.51560561424658,5.134094212962809,1.621842e+07
125.87528520697703,81.26691447944847,26.412000348511093,2.8629508e+07
-112.9644121032431,108.56718983182742,45.084127387711426,9.500799e+06
-99.58814527389858,48.05246898619089,39.529838384860255,7.7287624e+07
-72.41703224595963,106.46583248729337,-3.1942276651873396,3.4506544e+07
-166.58963936762714,-71.81714671074823,9.371623644736047,1.7573514e+07
-50.73159270161861,-165.9328243802638,45.89354492898622,1.3270945e+07
-100.18940738644766,82.6045325450981,43.53929518651206,5.1451955e+06
-85.89251041498878,100.39978808303158,46.804370171913966,1.556392e+07
-106.04019434540153,74.81101837702198,43.828932284299704,872461.5
149.16308188054472,115.80002182302354,46.88575098370016,5.0026216e+07
35.05692261710982,144.47644906845954,-1.080179135897699,189887.1
-78.80721983703194,109.31224404381504,23.13170748093626,7.01354e+06
-17.986183474748458,-184.48990189179068,-0.2963828996276021,2.8606738e+06
-126.32232261576277,136.45092959292123,-1.1664124097861088,4.210045e+07
-168.01930543726718,50.44248618715022,45.115688428038304,1.5280211e+07
-19.013270886537498,91.81000422006679,26.7291339976019,1.6546286e+08
-30.902797946229583,-182.83218262243952,46.42016381090456,2.92234e+06
85.15872730509244,52.52761156266098,26.259853629093502,6.166499e+07
10.832315861331836,86.4888337425711,39.34280172322718,5.816917e+08
-173.5013014480295,35.78373686256211,46.724431047766984,3.4597628e+06
-189.61394139404266,36.653782111662025,3.431061010187417,2.3362618e+07
-145.3890218162698,-111.37391584300286,44.26490812650664,1.9598606e+07
92.01129365990175,-39.511803526207785,47.04554737575773,9.7482856e+07
-186.77179202411025,29.15627921403123,43.39900584517961,1.4528752e+07
72.87332164844094,153.80583906647536,25.588806918458374,4.056239e+06
-87.27286047963123,-156.13499717232455,14.745079454937791,2.007562e+07
148.47401278370796,-112.38626976077859,28.352388332950788,208114.27
16.494041472709313,169.05253781657973,2.7627641512786214,4.652855e+07
99.24359675699077,-131.5002018066095,-3.915695721995187,4.883398e+07
-38.596135998261275,84.70417662705523,27.528581708840782,6.580676e+07
74.91005993183393,74.18023643310653,-0.921055866383691,4.2572868e+07
178.7356106369091,74.9416649750957,25.386929944479604,1.1977114e+06
-94.09239567781512,-90.83395573002434,45.31769052124538,5.0982892e+07
-184.02968179869558,19.767739895560112,30.60564563150067,3.2023444e+07
68.95218490036046,-89.12931482794843,9.765433820166486,3.706999e+07
-18.500422842793455,185.8976667831509,-2.409236000760886,789067.44
-134.23573099098058,5.857816816162739,-2.081345376164676,1.1901132e+07
-169.06194893654327,40.991484329216604,46.7929416983903,1.5161022e+07
24.454121738267872,-157.71768227908643,43.651323348622434,207194.69
90.88764565230889,35.88055838589756,26.260939605705143,3.1279228e+07
-63.137228707102935,-176.4657006418966,17.631736164219877,2.5889522e+06
124.6788668083799,52.955892700652896,-1.6009447128606729,2.884504e+07
-181.81626957567573,32.034198462096896,2.5183084835114773,1.14381e+07
-47.606216313281294,108.68174362005823,-4.367839721321563,8.305226e+06
-79.60318472587875,-51.71498421385786,20.360824460218975,1.2502727e+07
-23.060870938569025,-94.57812435113193,-3.386803990465431,7.27531e+06
-87.75800459761172,-69.7528128579435,36.48823798893614,1.6154532e+07
170.11642448593767,-60.461724222360516,-2.4166512372834155,5.178836e+06
23.709691229802644,-178.32350039418853,34.33913790166788,238893.08
-45.41131950493218,160.2969194695649,46.91512509096204,8.323759e+07
-54.98623882634752,-129.29818365915094,40.39211333995233,4.243544e+06
75.83492091352622,-77.56571992170694,-4.530397621663487,4.438128e+07
-111.27239025747103,-19.967011063159504,12.132164041447286,7.771224e+06
59.122153450364294,-121.87162246863926,15.80931661877474,2.7904764e+07
158.10519068804325,-51.758931862936095,29.41531114943671,3.9648988e+06
-50.77775255303831,126.02053278151357,44.48193199187288,4.073329e+07
-75.04149256184442,92.80771289836457,2.878012663613789,7.280138e+07
-123.55327734812766,-120.07257295315726,11.574325969138538,7.221356e+07
-11.36033772333704,74.26079487497793,-3.862335619503574,8.7579224e+07
69.44372792527548,171.76657606518847,1.1807663857947208,2.2949908e+07
90.69601901475494,-42.65285996118098,10.91186276917559,3.5434644e+07
-126.04981521784576,-126.24473055590818,41.61452072692028,4.0986638e+06
45.07933606374206,-175.2328010735274,31.56658301353891,2.8399294e+07
141.54047055580787,-122.14848383517406,13.835690470371638,1.365635e+07
28.61363300814699,-136.5519544325509,43.02275658455781,1.8112586e+07
-112.15654258358838,159.7166013300714,25.9917370507744,5.4833896e+07
123.47805424535312,132.0937748591124,9.631370671282598,3.432217e+07
-42.007928484523745,151.148139509496,41.22380081240196,2.2911284e+07
8.947287880926496,147.2461844704352,46.116564062931545,1.4127306e+07
-48.6127931697126,-93.44347183768483,45.142756505278754,6.6657548e+07
60.20866568651235,72.45621016702745,16.765004012102157,1.1926078e+07
58.08473787210443,81.72731902708148,46.628741533587025,4.286707e+07
104.50476455587517,-3.708086489540534,30.798116294759346,1.709016e+06
37.998847603530606,-92.14836027764379,-0.1541765966115154,7.400342e+07
93.59431005288803,-158.68544007217102,-0.9945669779928803,2.8369038e+07
-78.44488183597522,-0.47581356607079783,-4.678124950590805,3.306571e+07
-184.8774396263952,-12.445902931131826,8.172206254819676,1.3995446e+08
51.63716214851166,-170.36727951481606,20.19490568809793,8.2045805e+06
-188.10644162290433,-20.465477971035796,44.27237376445007,8.642646e+06
185.43058253075492,-38.78890096818054,12.170601308725313,41984.117
173.07041222492813,-75.52200334339022,25.384327177042813,3.7934156e+07
102.07100559510081,152.51411631168685,-0.36157399486044817,2.779206e+07
100.42363806008717,8.377395693705523,-4.052298657281448,4.5791136e+07
32.01870329128897,-147.96748398575062,45.67934308430247,1.0651013e+07
161.67604634187495,95.28112031600409,24.94651302766953,1.986801e+07
30.944329644293532,137.78750248341987,-3.1455624909154642,1.4780156e+06
73.74949846667448,-83.1860300426813,13.499450856401857,1.9637206e+07
-54.157679243174556,169.0659515553907,14.417430192243113,9.1530936e+07
92.66832869217757,-99.2227514386919,46.970780638531934,2.692276e+07
37.90236200747145,-97.85702435357594,29.957564442336754,8.664554e+06
-112.45583240457036,-149.1070363351571,44.51943029038201,4.7505932e+07
22.696849972135226,-136.85604769957973,46.07216711109355,1.7671008e+07
162.6726015691122,-93.01098325607175,47.44447274004497,1.5558051e+07
143.31636164254394,153.58331577034505,46.78197845044475,1.3558819e+07
64.25564467478284,-172.11334406542073,41.385823897251484,1.4500997e+07
-168.99407399661106,67.22596269137972,-2.426072213431581,1.9652386e+07
-112.30531083188278,147.6847347610002,14.379899874287634,1.1921693e+07
-105.28212950619844,-137.5829135873882,6.527464857027994,5.493302e+07
-57.96558580016179,80.70728305314276,41.92101526202347,6.921712e+07
118.76722346003834,145.07225492243498,-3.4417359250842297,7.8951015e+06
51.79611107512312,117.55985476788004,-1.4983075714178882,1.4291326e+08
-161.3822206225658,0.658751475398418,45.28769383534027,8.429248e+06
-38.298893102362854,-97.71403001385006,-2.6579467723512056,7.617428e+07
141.1569933113808,113.74499494882974,21.138508210675802,1.5889171e+07
100.12339151469234,-158.49187524029446,21.781268825734877,2.1207874e+07
132.08694710871686,-142.32215250305853,22.332333379788725,1.3721322e+07
18.659363130773244,-93.50059646812994,13.885091919257043,1.0671322e+07
-89.94710388108032,78.02199389429347,42.847147317029545,6.3563195e+06
-8.546216750867842,171.01999803815096,46.23649384942029,5.475441e+06
95.0122462816961,-42.06939731958258,43.22467156434579,2.099792e+07
-13.90790056901551,-130.04102396633903,-3.310862864645339,1.9282292e+07
-65.75047862141608,-101.35542165118211,44.69923911220028,1.4655601e+07
0.3513288667429606,105.13043928326994,18.053898472232436,1.1124529e+08
47.8152253305052,-142.0082554597043,4.2000084844230745,9.203093e+06
161.43088387749611,-30.216024863176443,45.374079473129285,1.7671026e+07
97.89719710714041,146.9860573258909,27.37195791641482,2.3671058e+07
65.66745055918187,-169.11945737097255,13.2367536115325,1.1818831e+06
-60.40639504470204,-136.82983423118336,-2.3259837092425,5.705426e+07
95.11672418988337,23.580477336677546,-4.774951406881888,2.2722302e+07
14.679459895773533,183.23360552745464,46.2460819412371,772318.8
-202.7276147521501,10.606430783068731,-4.243566566787973,7.605478e+06
74.09238278977136,182.91808739122467,21.434846279333023,4.206264e+07
189.07134659288658,6.3660455413936745,12.095705545566311,2.423718e+06
-60.03932012280649,144.97388225627412,31.601120675931618,9.823435e+07
-149.1080803142133,-64.67433640874432,32.85792427403746,1.5609042e+07
-173.16968802049735,41.43913434540622,38.93249021692395,2.3359275e+06
27.807988261367456,189.00409686006083,28.733047974663442,2.5085132e+06
60.54045248040626,-81.11045372350941,7.164248738034702,5.4602876e+07
-35.77496172024419,57.876990475412924,21.901650572242353,5.5802376e+07
125.68863402297245,89.9392343393277,-2.4600756359977716,2.4250568e+07
145.08678501335288,-111.01325103587618,43.23436996550444,3.405252e+07
119.80877205223993,-19.057364679429156,-4.954916342880747,7.329113e+07
165.38735536558028,-77.83636148252438,8.825151674278315,1.055597e+07
-114.50452523816982,81.86377470985161,43.71018642139434,4.5552875e+06
146.2389283720044,9.170566649791937,-3.9433073426776635,2.5002328e+07
-145.39144826069074,-40.682233338776285,11.249278125089255,7.501027e+06
-177.4973180460582,-38.239716921439964,15.712481048789773,1.2885952e+07
-83.08243375370822,77.47032309999031,-3.669084981721129,3.5014816e+07
-40.80669383505986,-93.51328468477647,5.320791586434538,1.6709882e+07
195.2810379011501,5.5624719537891565,29.51647512062997,783463.94
-198.39715692575274,18.83857423271118,37.06112692394967,2.4261704e+07
130.94921337465166,-71.78100830195783,-4.7207628985670524,4.2756764e+07
-127.93333849391571,88.3722735416697,43.74115851389547,1.3926365e+07
111.70193713264081,-131.86282392458952,44.67413431504612,1.3279379e+07
-46.945347963470255,-89.88974779603146,21.93270485755966,3.2936816e+07
-170.6954760214266,-89.3612466762967,29.883648816197216,174486.92
17.41115985096468,202.41940432362196,22.912660700357893,1.3303691e+07
3.7456390641372366,115.94401490023574,34.7858764192871,6.0273036e+07
-69.65296478210738,103.89977499697488,31.548510177941402,5.3917244e+07
133.00780273273244,-29.494663158268054,30.6701117495725,1.784698e+07
-129.9230595757619,3.3538772128532344,43.160624330840434,3.596148e+07
-37.350092715545486,68.83370234381528,15.719815659860682,1.195665e+08
-143.32976028582175,35.66543329378101,-4.150139356344976,2.189488e+07
83.22104528548033,151.70251648994173,18.54014629728694,9.284158e+06
180.04524369063188,-27.80753327484203,24.13937226644753,1.0306098e+07
98.17082442301665,104.86933645507406,44.12535772827372,1.1511147e+07
-1.647058951002009,-105.73666791872066,22.86079068754939,1.8307438e+07
39.72123559843797,-90.03291501204129,29.330303657293257,4.1781176e+07
-64.26986970337398,-98.57407585381232,45.922197884399075,2.1040074e+07
-69.0233025489733,-140.91082969897462,-2.480611636004495,2.26738e+06
102.47347753415659,8.070232249407582,-4.63268720062066,6.6618316e+07
132.1387402017155,55.66868291433974,-3.601806884854999,6.220284e+06
57.45790138941237,-108.66201608261642,43.91521237789686,2.8753332e+07
-50.02861693301239,-65.69717009200545,19.452822209165372,9.8765544e+07
-154.707197357908,-35.523188811013625,37.91697058312298,1.697511e+07
178.10303650545296,-54.10217719289892,40.30450844857174,78379.984
-3.502918074790898,203.61582216503047,43.70273532270026,2.4782397e+08
100.43274436662455,89.6711893115098,38.600356983127234,6.748555e+07
-75.11491900004808,-160.57197037077174,8.02898117980531,7.912438e+06
57.48373616183926,100.77729125113586,34.85682645154026,1.2055535e+07
-154.31787921111672,-34.96944967659971,40.027327462209044,1.7884112e+07
-153.75686018458336,90.70884901850695,16.670042776152187,1.6977548e+07
44.51382941356826,97.48659487210921,5.006311133921594,2.7364382e+07
94.03984861560087,65.33491931087804,43.772523304238796,1.7381062e+07
-81.38052217682429,-108.99677899531933,11.061720842429818,2.7375014e+07
-157.85498467600115,55.96972851002249,-4.243078566758574,2.648935e+06
82.9962511612568,47.254564540375156,15.362018219148482,1.65566e+07
-173.48927212639492,-9.34261798823394,30.753954483486197,8.864698e+06
36.88765328084446,109.5915038061874,45.37132231847923,1.2794289e+07
172.36709946123239,-65.47189960018147,20.035935820031845,5.152689e+06
19.209040177371747,110.44909946249817,43.55048428497315,6.880102e+07
189.0005739188938,2.7526937281997164,3.1432612894274907,5.3063395e+06
-82.23996935489177,-166.69110576712484,-4.534858802662277,1.4474356e+06
134.56872096025734,-130.80767270055279,-3.396648595162081,3.0304742e+07
-26.543073281081035,93.5327758838556,-1.270960844192985,3.059817e+07
157.28208341480683,23.18805710423507,42.84610017923853,1.0853748e+07
155.5043984672903,-94.70421919304222,13.75378735393523,2.4095338e+07
146.06379501329576,68.92074762269317,12.7259819870315,536518.9
94.45929935315502,-100.58906434120249,44.25371132069879,2.5712908e+07
-89.1354461698647,101.74891730462627,44.37716047567608,2.9329666e+07
-49.35441374053036,107.71526221594553,-4.48935137521937,1.0892633e+07
186.6398528393368,39.000974150958484,25.016156313128082,3.1688918e+07
-83.21250787309185,48.78241854156812,28.27065050829397,2.5995836e+07
-69.42479366509104,-38.53065868886304,20.79106674315268,1.137239e+07
108.97284122868939,-73.28464022020563,43.91668648921598,3.9600684e+07
-44.30017522445044,-174.91702675046855,45.85250987120881,1.0348411e+07
12.279432964220973,101.38758704584455,16.33622207402206,1.3911357e+07
86.58323035784252,-118.34959544012456,31.211039157746086,4.0127856e+07
166.4501578854269,-79.71993817182633,18.239360282573422,7.35575e+07
76.74202742479235,86.19618301032784,47.08021912403857,5.8583508e+07
-39.64631228730062,178.18226248712546,-1.9083580343671231,6.143654e+06
122.05390206388302,123.41100036687743,44.06076631991158,3.7487036e+07
142.38573451294366,-114.04841736945306,4.7517438698605865,1.6108929e+07
55.10485579618381,-182.8311029747776,10.589939327146817,6.631396e+06
-128.01543614332212,-108.58382762128299,-4.803094689152019,1.6440976e+07
-29.44201337457241,122.56287722262311,43.628640971875235,9.11465e+07
43.165076797406414,-175.72409363787105,6.882940805675847,317176.53
-154.6020993026709,-70.15928020108558,-4.618810812055377,2.875274e+07
-114.7124841328613,98.26765844270045,33.87001420378271,1.945664e+07
196.84951206941736,-2.1121818543239783,-1.9845682462961967,1.8153452e+06
-188.76874335448605,11.92201175328205,27.06569736518344,5.304655e+07
-45.80087414490424,149.48382620704206,18.54629419098631,1.477926e+08
51.53295301705697,-166.79770849142676,-3.7015533787684296,528069.2
-12.527204936998572,-116.84441694747134,14.407197877645519,1.3180636e+06
105.653227961972,91.74097459181826,-1.6527650726862348,1.4892396e+07
-192.02566858694226,34.67590166809015,17.78323204972869,2.26266e+07
-174.92240189195633,59.576805165215774,22.377195270567807,1.6654868e+07
7.493310716836646,97.52136993913956,36.612693316052784,3.676853e+08
-33.10485410365041,-146.4011695270766,42.70900105714766,8.739201e+06
75.05642723549681,-89.82530103632254,47.412181649251245,7.814859e+07
1.4184364916732477,-119.78620232316035,44.671984232179376,768380.44
-137.98153970374452,99.16744198750854,42.6143907989852,1.2539155e+07
-121.181205357868,51.700399412703746,42.60890744806905,1.1008156e+07
-53.2273826477842,-140.6446241959252,26.392759506967298,4.3794988e+07
72.30791938049833,174.09784347743636,43.69411759205674,2.4377776e+07
-96.85863245737254,175.59965310144787,29.351362405076806,1.8509734e+07
82.29284997219492,165.78946070852766,43.88936425244942,8.010396e+07
-132.0443900996913,-108.97693676204898,5.122413568482164,6.880834e+06
31.567820735201195,128.8922172015362,42.976340358792186,5.5719165e+06
-1.096389199214002,104.66273244777625,3.384129677649341,2.5389788e+07
109.5682713657921,-146.52625088896912,17.437137040054242,5.6511964e+07
-181.64737304242936,-53.813099529657535,12.353142586128282,6.297152e+06
-70.80374194504193,164.59198119436087,20.895877127120716,3.6583052e+07
-48.60057696997836,182.51973088103807,-0.5937547993035279,3.7936708e+07
87.1805957346537,73.88356648519715,46.150915000137,1.0945839e+07
69.69844577258618,152.94927819600025,-1.427523442899024,8.561146e+07
126.98407985235048,64.09669569517166,-0.8654599553404205,4.728053e+07
130.36267773351238,-127.11820405111618,35.09104727444033,4.570712e+06
-165.50397615628503,-56.66879680223829,27.72503986324717,5.040026e+06
-105.72578061377969,6.834014382083808,-0.9068175296030692,2.3856812e+07
-73.33633852848158,96.0663538606064,-0.016172709185557466,6.890878e+07
88.3698135817184,165.03490783008016,-2.860268777479313,2.737232e+07
24.504374192379885,172.71012538941352,45.094849425045744,3.659073e+07
-80.02256153348401,83.35509297752566,46.25629239152159,4.5793196e+07
-110.5023554175596,88.34678292566724,-0.7695798745297893,2.98039e+06
156.7852148063319,108.0001184807623,18.634816077134264,1.8735366e+07
-95.05128091875471,150.75332216576697,28.935297165166098,5.3585916e+07
-161.6899435981124,-62.66536776978293,28.396871576216057,3.3955492e+07
48.658144607088616,-171.17019323538904,-1.1984623371185403,2.9073018e+06
-141.21015449018833,-89.43429456106065,16.53912942187364,3.8490235e+06
64.38261985964846,-110.7660789038314,47.47339469425467,2.3854445e+06
-46.81563928671167,-169.84663869265972,24.480071289015388,1.1322919e+07
-116.85619713190576,-108.45437882692033,10.430232327788088,1.574976e+08
-94.32954802158463,-14.723076498875542,29.844193854808935,2.7714058e+07
-112.50177222191623,24.066717568479987,-4.24904324669136,8.9743e+06
133.70227807378438,105.7329899758995,21.690311557000523,1.7000278e+07
-39.9773488124317,-177.38771222331656,25.868819660437204,654858.56
-192.50206693210802,-37.619453459835256,28.513467957450658,1.9896336e+07
-118.09889914032104,75.25491348369945,9.654501171517,4.9799964e+07
-99.18159368527695,-20.74428613006731,26.875761281582477,1.1127252e+07
111.93484802903419,27.433929382214075,-2.5025521046015555,3.0222578e+07
169.3129987583887,71.6151309345658,5.960771398641551,9.962798e+06
145.31446819602536,110.59934938278809,45.87310328764317,4.4975196e+07
43.791442029619816,205.07061902901768,15.815058100681593,8.881543e+06
89.46578219248454,150.64092847835406,27.838277813647643,1.7414904e+07
25.929733220878347,-151.3363433827908,5.542180544307875,128980.76
-40.30341978198646,-92.10809549309566,19.344501534584914,1.1535949e+07
-79.7972588993249,-121.05356534604626,26.12527918863479,5.6718856e+07
84.6181775346032,-100.52876461586729,23.338421419141245,6.243945e+07
170.94946328289308,31.890028616281427,29.206898527768423,8.380198e+06
23.718201839925797,181.02484281369982,-0.11753505777312157,5.5658492e+07
68.63317773307654,-71.8805837594056,42.28441774749461,2.731011e+07
-83.80552487767855,-151.71481078401658,35.22100429485821,2.4290404e+07
-168.19770256439398,14.910066833842137,46.03517777905833,3.55795e+07
-61.66448311126754,-62.47889980358539,30.91566529755552,4.7039988e+07
-72.93384078390295,-84.84874019552703,45.07033562954996,6.173921e+07
148.22264094717457,142.10232176379623,12.786164118883988,3.7659464e+07
73.54002300256587,-175.01990077383212,32.17892861308127,6.126241e+06
186.75082517743095,8.476126078067438,-4.463354350273729,3.3397652e+07
41.41764579797592,-120.1535657104794,-1.133746740597331,4.817688e+06
-136.08988756368012,-78.61350890078165,3.299319516180933,2.139304e+06
152.34774531360063,91.26797132705582,43.59819648180019,6.2834724e+07
-13.097102732788187,148.11257927059205,-0.13665098243060747,5.058471e+06
40.578398167521385,155.13595253561317,12.10010476918325,3.2350226e+07
-57.46229260502727,-123.59563563142285,39.950768610990856,1.0218801e+07
153.52658382483247,67.94481550923206,-0.2863824402363493,2.2411626e+07
10.417740124967054,-196.73526892174627,-3.4457245181559903,6.5465344e+07
8.745912717715925,-118.33703350481086,47.289460232858694,2.970193e+07
-101.79988009782363,-1.686788199341919,18.834826585655318,2.6939102e+07
-12.117200205344176,184.81436646332583,-1.9602986132554236,2.678284e+07
-88.9535670437455,-37.32332110980613,20.893490817839385,5.222342e+06
60.2153396853908,163.3333663091169,-1.5729221460675409,1.5866405e+07
86.34973702938458,50.05030360195832,-0.07297634312472656,3.332402e+06
146.64253754068625,-90.14355426141711,18.381454043623375,2.5707036e+07
-181.8921027028753,51.88784571302841,26.69834786884186,3.540323e+07
106.86053338226202,27.382934736353462,15.444735960258864,2.9464158e+07
86.05926803429907,53.52616870965011,43.190055365816164,4.9260972e+07
-138.38235734370818,97.39720545827197,39.006987565450196,5.358016e+06
-187.241942849159,85.28026112570228,8.01606869977566,3.015839e+06
-150.9980185957702,52.36142533687604,37.03791226634206,2.031607e+07
60.50655607859625,108.99420680712444,-4.941790024432661,1.7314042e+07
-151.7021606568594,-78.23453155568711,32.79973980399075,2.456957e+06
-171.85109589508284,77.63143634852054,-0.8820772387877671,1.937715e+07
0.621414197147061,136.28241704962608,-4.038323973977443,1.3526109e+07
105.15803827846321,43.679868443965404,27.63861118619961,1.2583461e+07
149.35701976347372,56.47230467317894,28.567333309642194,2.291952e+07
-97.17898402388073,-155.6514290758842,-1.7652754724366555,1.063005e+07
60.36607771024262,-159.15636241357157,28.15268957624889,9.678158e+06
78.57274801043411,91.57935984203579,45.174708811725715,4.0605376e+07
1.7809302867659085,183.9383042815175,31.906997892208125,1.1699086e+07
-173.77436483568306,64.50605882670209,-4.953062079859912,4.015964e+06
131.95728489551652,123.55436151432968,20.895766625408232,6.459959e+06
165.02281403255608,-47.24920184597684,7.008656200948797,4.1692998e+06
88.40078841725392,89.16311657364753,46.18879607972288,3.0372204e+07
68.44683213530539,-158.17864035806585,17.184167729008063,6.823931e+06
41.582271713964815,-132.89279750789916,13.961459199422087,1.0012367e+07
-134.31714073141396,-141.5971092571328,30.346715371730184,1.4487051e+07
164.3718189779001,50.81219860163094,9.203052105173207,1.5047364e+07
-88.60417430201736,96.73904982323177,44.36147057132022,2.9474776e+07
-128.1109236519631,156.22127605621074,9.508952597232195,9.6113e+06
22.959021913635013,-187.86658805408644,44.02436208402833,722374.9
-52.17219680496396,-98.2562141577021,13.21229323091373,3.4157923e+08
112.41091798278728,-95.12353348945805,30.562200001326154,1.0023882e+07
-154.96381675511714,38.2015171547545,-4.371399724545789,2.2397336e+07
-194.18076899017586,-20.641142870736218,14.692624772570497,6.267256e+06
-84.77764328400835,40.63916392374648,11.966849044631061,7.3971295e+06
97.8983359089155,47.98204097996717,-4.819484611548715,1.3362642e+07
-168.59867104046617,65.86974816150052,6.137490594546971,1.9854966e+07
138.03309674677723,-0.7962853191488648,44.50092261378741,1.7788278e+06
112.91503516631468,-9.565625806347498,9.120259093097895,1.2582911e+07
31.09546566126079,175.49679559268242,39.31390651095821,1.00628904e+08
-148.61549722814948,29.020639891193753,42.13518593725063,1.6916882e+07
57.08067473088488,150.14457619647789,44.823531056600764,1.0038433e+07
142.98078633780904,-18.474853503162365,-4.923162126060295,4.0862004e+07
25.823622789608862,138.31586969145525,-2.523449238454539,1.0773504e+07
86.19021802837472,82.22482744182344,7.561704967850574,5.049097e+07
108.02054966947372,46.74949004741512,23.64434997189451,6.17925e+06
55.89453852552862,-126.13667966329444,32.60021238029123,1.7126705e+06
84.29892343154438,-40.59923012692184,34.139660881757536,1.1954864e+07
-37.31687900524747,95.46437001712286,-4.568768617383872,1.4000519e+07
69.88697771033804,-107.52125771433553,3.262036777910101,9.918792e+06
89.09955175499636,-165.15587597591912,-4.574674933688836,2.2972546e+07
115.82291670362707,-23.575307111832245,2.453262188665019,5.2134595e+06
-155.5157357644702,-48.68931738931505,11.82532623252369,2.2063294e+07
-68.58925654888927,135.01925490114058,37.71787018449352,4.7563092e+07
66.64930720431693,90.81472577137549,-0.8078287461086884,2.8803606e+07
-179.05424210900787,46.12819469601362,24.02324786476809,2.680991e+07
171.49961979124214,16.22428278876697,47.10130087270805,9.712129e+06
96.02615478717667,74.56358563425204,47.49066930136399,1.0753596e+08
-182.57986341294546,-88.15198092266706,31.607939945333186,6.9087845e+06
104.97601138732136,-60.034574496971715,4.2212959976672995,1.885128e+07
28.410729271892507,-86.59304497802214,9.239425758505705,8.749465e+06
4.36725873299153,92.25125156383018,11.922891445948029,4.9789276e+07
106.88043238532327,6.301264806779017,46.25609707304592,4.6363844e+07
-161.17497766272487,-137.5580545298946,11.328298777675702,2.2598388e+07
84.9523251524596,142.18362866062301,46.45899762253992,1.1073799e+07
39.01529594046269,191.97890051105344,30.742974881335314,2.1871365e+06
-172.65086850841246,17.211982923748764,-2.8989111724419976,2.8631426e+07
-123.80996218055593,91.0619612488299,45.43917129588398,1.6735062e+07
-23.506695766393676,-166.1504174077421,40.4869376888188,7.253437e+06
178.46016897867594,-64.98205478740707,-2.0089162779292287,6.027358e+06
-118.80918025580405,-106.1071065500688,41.18337737034347,9.257767e+06
61.265161325861186,-76.50335572911251,27.2169029360892,6.8317016e+07
-36.23268738692872,-93.71369523218148,-2.9313280398414814,1.4139192e+08
88.76894584773447,155.7516667406951,19.80260623800837,6.466348e+06
-141.04755242713003,-11.14650626378156,44.67342342304146,1.9741778e+07
-122.35536895558147,-47.70818132974091,-1.013305952377281,4.458974e+07
-163.36957640761815,72.68700858742187,42.23691308726993,300931.56
-40.49959932970651,95.13948412573518,27.89373847825143,1.9213482e+07
-83.69127395575771,4.023834564108142,-3.95680475839098,1.5052642e+07
91.92952353644455,-161.5443179688836,23.165148834281602,841251.0
74.56857503165486,18.349216521880635,34.05933460210176,2.6619476e+07
55.63417433395546,87.00905447731162,4.138185413163242,4.8337388e+07
118.14061684617718,14.76403092991427,-0.12344486172221103,5.7318956e+07
145.42024238503762,-81.75113442990875,27.542094612590276,1.9117646e+07
10.747089469014412,130.3032996626174,24.834133022404778,1.5947519e+07
160.70438242992935,-79.6384506917831,9.626641048658508,1.1218881e+07
103.41164488093489,28.00869309610789,15.391550759205476,7.2875e+07
89.36938192782651,32.231801734574276,31.219167295499105,2.2668302e+07
117.75569790604698,-144.12731798771074,10.668637273524165,5.6673856e+07
-14.258861601689262,169.4131588161918,6.52650209888213,2.6892348e+07
-10.890004332602274,99.41455585616711,23.99282553645839,1.4001357e+08
-163.97084533177747,-41.09181804077494,13.228915173960768,2.6109886e+07
152.10104124705362,-45.25953056027231,36.58963077746803,320092.06
66.0188970504546,-155.07108386561572,-4.8821986202421925,4.216098e+07
-39.17003314304023,-92.00553950704372,14.650852402835955,8.684274e+07
-74.26697536470033,-44.659167492261986,6.5062104117312565,2.9167246e+07
-126.94453714473107,-125.67378725822901,-0.5227873760490347,7.031746e+07
8.4191888318623,-175.71719991150044,3.883428700195239,5.9907825e+06
-10.873779792807994,165.61424232772475,1.4542413857486851,8.54768e+06
174.68012909009343,17.675492337660188,14.117027428965628,1.7251018e+07
30.298105460407726,-90.04318942571761,43.85531361435525,9.37175e+07
-48.42700857948509,188.04291369893804,7.315115640764391,4.5771332e+07
108.1776105413623,0.17726052899689648,18.582928276281656,3.5589152e+06
7.344927822093354,158.9099452800382,22.654761410134512,8.956103e+06
167.76389273910024,-13.344958391941049,25.783084230284867,3.5480504e+07
102.244320374837,-27.0140822247688,45.909497507096496,7.144563e+06
-155.5580875036258,-2.613928227196425,14.00859407370038,1.395533e+07
107.2177170081822,-52.62279430339311,33.743465419710816,5.42371e+06
116.16300891973736,-33.30093732410515,45.29073228972693,2.689527e+07
135.45018571427028,-2.7149772019505747,46.27587497629789,1.5196801e+06
84.65605434136864,-15.396653655912871,24.416391353486485,2.4113172e+07
15.275599408529445,-135.1844003855306,-0.7072096698496013,1.0301128e+06
-102.99520360077534,-51.363377984811535,-3.5385528281729006,5.0600216e+07
-42.91701117867399,-74.70349665540971,-3.3349797827394227,6.923458e+07
-154.62430130707054,99.9748072247346,39.347419936482176,1.1293164e+07
-170.2408880834842,-49.72921794613558,-0.7393756080329341,7.487273e+06
-51.184839542193686,-116.22551745348129,34.62480680054378,6.4791115e+06
-27.368533132517825,129.61802959538187,2.301372543932426,2.8723186e+07
-145.03263326793183,95.33050662689453,-2.5805718611891044,4.953629e+07
151.80375091307712,-95.90105738397654,17.391870530474623,3.768349e+07
163.5494893857474,-76.66181537462558,-1.965903538790014,9.149057e+06
11.241785927184651,95.50033600832285,7.3355085881211615,4.4185972e+07
81.34927059082918,-59.69947786784195,10.836696577629219,2.1926466e+07
98.89513631374717,-133.6515227018495,-2.5005546432290044,2.5193332e+07
43.719302136195495,-97.35680828656035,-1.1759318806878238,7.826429e+07
159.5653536076942,-9.592735017262157,20.347213164170302,7.1194945e+06
171.64259184394837,-57.387886788351324,2.329580210891251,582202.9
-18.393263760886413,137.51893412996867,-3.036130693379361,1.2468991e+07
28.406793760102204,107.48660310798869,12.28521394549881,3.302264e+07
-156.9378910446238,-65.92522591633556,14.381150313089684,2.4915476e+07
-33.66738516211851,-158.9810980161189,19.868564174438195,1.1426989e+07
37.23572585734891,-154.43144151249956,-2.200360395972682,1.0174952e+06
83.91440187860377,153.5793569150863,-2.3477323215169874,2.8642014e+07
-95.11775553394995,124.52159182052304,18.522487156837467,6.908414e+07
156.89501693551455,-95.34997521572312,-0.8032728648594025,3.4802132e+07
37.6164942315944,-184.7470177166189,37.47119473667949,12760.677
192.1373486481554,-34.215696840408555,21.86859496266618,3.087028e+07
56.44298410951188,127.27618336841891,36.525537799657165,1.1792754e+08
-23.258320243860112,159.2376085129735,8.443104995022441,2.344995e+07
-117.4595229590293,-105.53809947434678,-3.8394712665243294,4.4626668e+07
84.51952264887814,52.0958683433451,-1.4142499623752638,2.2123626e+07
-177.76735708506675,3.4518249324867156,39.20960970410588,1.2207516e+07
-70.7343775650676,70.43181208027113,15.205042897223567,3.0546806e+07
-153.66370795014547,-108.33951242344328,-0.7508637246493537,5.789217e+07
-92.92213810060929,89.34334573457932,19.120524449714726,7.590349e+07
74.08897839983524,-88.45200708438635,42.282335228667776,5.8995236e+07
144.66103906041587,-114.74337814102918,12.833113354002908,5.84286e+07
-45.41756777126457,-120.32966177217453,43.24945141545666,3.523791e+07
50.62614264105002,66.40321059878227,17.93562638095321,1.4474403e+08
71.00396229745229,131.31082281961915,-3.68831796339896,2.705304e+07
-70.68223995441687,167.48215669443397,44.948153800981984,5.992877e+07
-1.3149423084610135,-153.6329355969301,-4.706569946339479,8.809447e+07
76.97943756365538,-35.76332946057997,45.18057678374463,9.009921e+07
-155.07323553788507,29.277002184127383,37.4922678588861,6.6120765e+06
155.41243833934902,41.71153345966377,8.376505069015858,1.2458011e+07
148.71326468380818,56.99058288358998,13.014104812040152,6.8705085e+06
-66.73991539365821,159.47997476668712,46.77478691428151,1.2654085e+07
-33.71030902160783,-92.56836137909329,23.557102574341158,2.7432165e+06
53.824679131581775,179.10029780986366,14.250684006183242,2.8575638e+07
101.0677683558248,-117.30292296073549,13.002592798570802,1.1883043e+07
118.79887276176532,112.5267404431363,39.889768837852564,4.458785e+07
58.086856006321284,65.58234923167231,21.82166842158979,9.85018e+07
-60.14026585155639,78.19458761646939,43.014726521707885,2.3530924e+07
-140.72138173903915,-75.30220194490585,-4.5359057985855555,3.855291e+07
49.86663832796319,-110.80748313312921,-4.673578028542957,3.654865e+07
29.21183266161239,163.6099169468265,7.304280453975741,914763.8
-142.12421139256062,6.36441301542331,6.465471926336722,2.2705142e+07
23.104612016879997,-107.9538789943121,24.127617028004273,6.5557375e+06
34.92164440362879,149.15284217150878,42.822294791912626,1.0296178e+06
179.59921295027618,58.29945861818385,35.290114701467246,1.3239177e+07
116.91710185931788,120.22082734641413,43.56388433493218,2.2234764e+07
83.66720380451113,73.41393625537268,43.57000045721716,6.0445948e+07
-82.28739440490497,-75.78471460436577,-1.1608666963689096,3.563695e+07
-158.10813133721047,-32.05380940334257,45.64510300769296,2.707298e+06
-38.537859821171764,-105.52987106299767,28.491720423051646,4.3107315e+06
-157.46227557440568,16.324436168350132,-2.78007241923509,2.5838382e+07
129.31885736744692,-82.84809389445073,43.63881923485932,2.5089066e+07
-199.3851839334448,-14.02016548561511,-3.2180136496190475,1.4230442e+07
66.55863644173405,148.5607716963716,35.24225170821671,5.9914735e+06
-152.49423588496103,-61.82829048180611,42.13131731143497,2.2846966e+07
-150.85098460335018,-91.04174538217472,28.939813900402307,2.3552284e+07
208.43565204414676,87.92634051596758,31.915322382390947,1.2402967e+07
-2.0799847241563043,187.8960819617185,45.25931970148028,1.6656893e+08
-75.99432859649013,-58.59388592947684,33.382700011821214,2.086213e+07
-45.51963350632104,162.81629940975097,45.71995844404467,2.2991732e+07
56.17122429785479,90.11503082722106,-1.340214775781607,4.2007484e+07
-158.95480455696776,-61.82827412990508,12.745824380045097,2.9495534e+07
-2.839832123213853,149.79694928948697,9.890351550967457,2.80867e+07
131.47933682594208,-57.68539425297848,3.563861710298159,1.2304285e+07
33.99821265720337,180.33676054087687,11.907574829272594,4.87896e+06
-140.71074005874695,107.20716189923326,47.29005950280966,2.4765548e+07
-194.3751385247847,-69.32408655504673,20.587981310777447,2.7733358e+07
39.30862862070768,-180.13942772575584,30.35689418818965,9256.303
149.17377981267947,88.526837920111,39.91619614868663,1.8521332e+07
94.97256983985329,100.87792065124478,42.76411492577818,1.0900454e+07
-27.273811839019743,110.48709093622199,21.826387371609393,3.518604e+07
70.0866738452313,61.986711823670475,38.27207704437005,4.705735e+07
-92.44837923935411,155.82631038731762,39.90431780013926,5.3793172e+07
-159.6412133843162,-72.38731758898248,22.130235556131527,1.715664e+07
-150.9034196905271,91.69770224372257,33.31652608564318,20553.23
-93.11040844276361,76.14481968092639,16.569779415874176,6.616493e+07
163.13075370313652,-47.93274103692093,45.60739793025596,1.2560698e+07
-123.9457594110713,136.43801571784735,29.279794872860364,5.4931835e+06
106.99966188737847,149.27541085028378,6.554152802769625,2.6225012e+07
46.340541688708186,-84.57463249582662,2.54870762855787,1.7682718e+07
-186.50433669866612,51.57421678815825,6.221568284699819,6.0189375e+06
-109.46581980276387,12.031087452423435,29.48153616580393,2.0287156e+07
51.09506357034877,164.69286055257567,42.29123422298863,6.705702e+06
33.222263842597215,110.08491015603454,-1.0579206461856532,4.482544e+07
-50.759235635358095,171.2315163093483,9.589131626473655,1.5370457e+07
-106.2452323361074,103.81621059430171,-4.663012845575465,3.4457564e+07
62.3469082560207,-84.60758142221275,26.97565364372359,7.751472e+07
-112.86621702994138,-139.31698493155355,33.60819663881771,3.3325862e+07
75.31528711652379,137.38787130649098,43.08490153143975,1.0163968e+07
134.60409033675325,21.71696587788375,-2.7305195605746926,1.5200348e+07
0.5146356261417111,63.52397668142464,26.438918364891826,8.194472e+07
30.964928495790446,-113.09557380067736,21.107284743100852,1.8358028e+07
-199.09128539144982,-59.31433887960978,39.39910297550413,3.4679762e+06
-94.08591595540477,-20.638787305677823,29.004129098377284,6.9439235e+06
94.01640176199732,4.724265815312776,0.45834981868060964,3.175695e+07
19.000847064440137,-143.01549457686423,-1.682681152030745,582591.4
111.40252941028558,20.94128619334188,24.215170705483132,1.3180425e+07
147.98588798407457,-43.68903780067336,-3.9391778514060105,1.839485e+07
209.15436459220206,93.74451868302924,39.01640622033736,4.2186215e+06
128.4742798102381,-119.44028713180755,42.543738486485786,2.585142e+07
149.59121493783556,-98.26861699629298,-3.5337544378985877,7.7000295e+06
128.56159726350353,137.35294041504864,-0.7901027658070765,1.6426431e+07
-188.19644207497484,-2.1523571359108473,-4.266687933529531,1.81723e+07
88.91336838231655,152.54594110587004,43.277124610754385,2.432472e+07
111.20902940542175,29.303266376514273,-2.5386614098974634,1.914992e+07
-59.84966115723029,80.85156120886484,28.19863053937403,1.8026762e+07
-168.3626033617907,-50.31366859548817,40.79767710728741,6.049927e+06
-95.2363021083313,20.14050314474389,47.48588022028642,1.88619e+08
54.296818803233805,176.15479947037113,10.554217202766804,1.8049786e+07
-7.074702327814748,183.77307742229033,30.743361584901336,1.0870477e+08
103.25484307962398,46.855625816506574,39.76296002477675,2.5967054e+07
21.350063067108863,181.86593460861855,46.84520005232915,3.499188e+06
-80.76297770150089,-160.8479947402258,16.08058626764833,6.175338e+07
127.90131324857913,-109.28313932656133,1.311369967028189,9.83937e+06
-124.84529954779161,-96.33660275807857,-0.9668027329627797,9.809179e+06
24.68030742593939,184.03828439123288,5.430528834752838,1.0048854e+06
-19.848128427716034,175.02398486885176,43.80994745301991,9.598102e+06
152.35180767749608,-27.04687248828057,28.042116223570005,1.363309e+07
134.790466476184,156.66191776108212,30.96464960484844,2.1316814e+07
-78.52033494436924,-84.80131061199947,0.9180004668979542,5.2247944e+07
-110.28721537715481,-171.34135707496552,25.127072001457865,1.0797965e+07
-73.40522305436338,166.43445291813606,33.79883281495433,2.9636484e+07
112.81909168989802,62.86425948924199,32.609863497572384,3.1450592e+07
-78.22813281531481,46.45888650466435,15.002920746396548,993109.8
88.98392270093291,157.38684826513867,19.928097179200748,6.435001e+06
80.1547551123179,-161.07914547912,7.784206397178377,5.9798336e+07
95.76719959900475,-41.142193681313955,8.424488052027398,1.461341e+07
51.493436845414294,133.28037335016768,38.24099421836561,4.9084055e+06
-55.0115625752737,-126.8830936097725,16.682296079571202,1.953748e+07
-99.01291451125195,119.07804857268451,47.20529157485829,2.1983544e+07
79.8255693428988,-75.4173980202657,2.6054965039214633,1.0620822e+08
58.144129319596516,-175.779588940648,22.319202034620748,8.10198e+06
-40.207968358594485,-120.97490232507283,8.545485451203557,5.5428845e+06
109.72752713736946,-134.04950182210595,43.52158960365119,4.9083444e+07
-96.68572921629115,-22.79434884598672,43.62107090551452,8.912105e+07
132.35697691800272,-57.832775246904475,42.93173159745032,1.1634876e+06
109.43488921673168,-104.80952940166935,43.31035899016195,1.0934419e+07
181.1907005296115,-1.5190255973237186,20.037582000958363,41134.918
90.39057882930928,142.88475056872687,7.452003657780393,6.873478e+06
74.57605414122781,112.36354688812963,-1.3557974490794624,2.7216628e+07
54.988546920079784,-97.64007307278054,42.532565781391874,1.4453236e+06
124.62205166861327,68.38614517242775,45.65168868064267,1.5877153e+07
-132.17201993002456,-33.19699336354472,9.359898908149571,3.3257796e+07
17.742285286819367,171.02188976397423,1.8816079732641784,4.2151388e+07
-7.026262731350926,-166.55019255499056,17.562960871042375,1.7727278e+07
99.05187263742454,134.91606458318358,20.67123953693716,2.4979672e+07
6.102881422851283,-93.93023225153881,17.70662397222583,3.373898e+07
90.89676345012464,-59.56748818655075,11.761310818169502,2.860573e+07
5.971552990930547,-126.25125679335507,-1.2515458096540666,2.1849794e+07
99.30765239936642,160.5986068417401,11.366958973804678,1.6333275e+07
-57.325897849552064,-61.44044998763252,22.25150032496037,1.7213296e+07
2.3448997071635915,119.42092362949342,30.312405894785336,3.6403064e+07
-55.56953053719985,78.62759981230096,7.615477034471343,3.2521654e+07
109.01648335235183,42.83251172511825,42.805189813694376,1.9885856e+07
-123.24143941023655,118.87584778366437,-3.4773933967338424,1.0341371e+08
-149.20748892496908,-68.61393466660866,-4.908374061520789,3.0299354e+07
-114.1500437785025,-135.87214835613298,32.36162658965666,2.0299354e+07
-142.5409927859623,-60.438789378714745,-1.0937473464004785,4.863998e+07
-119.46311586307283,133.84447784209942,45.088047300149434,3.1299334e+07
3.5609518060361154,163.71503994671036,42.80576881137501,6.444335e+06
50.863923409341965,-125.11783133056551,43.76997903712675,2.1939742e+07
83.74800312021489,68.70719956656791,18.215786443337656,3.219734e+07
-161.2207419337724,-59.02273921818892,25.44074696904638,4.2506176e+07
-131.0904166640068,31.62229517209093,-0.2682433064681309,1.6360513e+07
-7.699518290504585,-88.894166841534,40.30109329027197,1.018312e+07
-96.60595496603963,64.69562551773078,-3.35050899717747,4.739226e+07
-121.90761558100426,27.23460991197547,19.263641427532214,1.3889786e+06
-8.97652511419443,-135.86012868683605,46.11590318013925,1.6839201e+06
-0.053203085522625315,196.83662433612056,-3.7412293156448393,1.1376909e+07
-12.258188348602687,182.00278892502735,-0.2842582137591503,1.1226583e+07
127.95870130213854,22.986764434773846,28.146569187911666,6.9113375e+06
95.4197206787033,140.3815571697515,-4.568486070330286,2.4424758e+07
51.0031712225574,-95.47059073055895,46.36932119111726,1.831119e+07
-131.49454925712217,59.814865086739644,9.62753576743373,4.102609e+07
-75.45306862283368,85.56155647539697,17.12788418826252,4.3740484e+07
-0.09847362510424773,-182.78655966585382,25.22037643727699,4580.4326
-118.90575838714383,156.56298354870438,33.02650498721432,3.1644488e+07
-97.01158339154726,-9.87583953047141,47.20746560518609,1.9686134e+07
60.59949867397097,106.9307096565812,13.9375797568104,1.4649902e+07
123.65122161876786,-109.2508463451442,-4.136331988741381,1.1312725e+06
-50.05106814556291,162.6704368689965,2.40413049009074,1.9621502e+07
121.86684689838853,65.56812332824205,40.88818086219638,1.1058505e+07
-157.46382898405466,-79.71673909523682,-0.6541747496686288,2.5477344e+07
114.23285858317689,-47.91794675573087,46.512378763455864,1.802498e+06
135.42193746347147,68.0976014501079,34.83795006070337,3.5048412e+06
-77.84649892894876,149.1668732739393,5.929102619631637,9.163099e+07
-150.40380747133793,38.42288652164078,22.856650761122385,1.7349828e+07
75.94314826588715,-78.3121165449027,11.943667391756236,1.0674213e+07
-9.918734241319697,79.7205500419575,21.602808441614933,3.2341546e+08
-34.80183118730238,-149.14756333441017,-4.097152608972973,376075.1
106.3982153095647,-104.44275720635265,-3.4805660308154884,2.7259316e+07
24.53889481020343,128.8138406985601,19.48939336147344,4.3990015e+06
-172.60130633082798,69.8936953275068,38.94830526489196,1.3989148e+06
-126.05402334367365,1.909301099066937,37.93576118661642,3.8292812e+07
-79.43085181459037,153.6172258140669,28.37864788719895,4.1979604e+07
-153.68491379058702,84.81032873659558,43.87340893934534,222444.31
-36.72229668335976,-196.27566163488757,12.560641651496397,8.0750105e+06
-77.00705598129332,141.22269315726243,-1.0831053135377737,2.974395e+07
-15.582724944352435,133.72454650001907,47.342049542219605,9.1976104e+07
-38.361706515977346,94.21866800849199,8.466404271006889,3.9822564e+07
-101.58551103543417,-98.89314503066407,-2.9687765679928146,9.692702e+06
-132.8709284316304,94.29082667328896,33.71859676303209,2.191693e+07
96.14562868058533,-59.66829478562187,35.09315349034091,1.3149963e+07
-56.424833612077805,-54.567617112815384,23.716234095399084,2.6495168e+07
-54.57985735025636,112.2430965085992,6.201853652126131,2.1769532e+07
60.47519651185718,88.63209306531434,5.409459887430003,6.5145216e+07
191.7685231768334,13.996500565964368,7.819031792822663,1.0793607e+07
-175.4706451837982,51.61217343969281,12.312693190909698,2.5429146e+07
31.68392144856648,6.5919465809435565,32.48035321890141,1.2644493e+08
-29.974523267257922,174.30057569351453,-1.382187182310183,5.862947e+06
134.92493932687876,-9.56532126823268,-4.5642518805433845,2.3948614e+07
-82.33887622220018,108.39079322141657,-1.8950385048453935,5.489639e+07
-124.83868221804715,-133.30640838815776,46.30758783253678,6.3648105e+06
-134.4249815894218,33.03692264540041,46.5627108867415,2.374693e+07
8.10887873228532,126.27690560007181,33.57188019445225,1.9176962e+07
41.912461691029876,-153.9168374214032,25.06638606713203,3.117549e+07
93.10252125330902,-160.87113813025985,45.27380681555786,3.8075062e+06
-124.91386103523766,-77.38840707398899,44.63184465421198,2.6030945e+06
-78.57760817443227,-145.35134431039512,44.02989125230592,1.5044307e+07
57.200633508209535,92.62842248077243,27.826528795393024,6.113013e+06
-110.62596855445722,109.35913730634928,32.761457292979436,1.1394179e+08
-185.48614974704873,15.500445759359195,46.31979992752733,1.1292227e+07
24.585766980360177,178.34888006228186,-4.821015272194064,3.7480104e+07
-55.69553514286636,-57.237186318429366,33.02743874865114,1.1229615e+08
135.56666269724525,59.65915449982708,43.36586222695679,9.562079e+06
-95.84140789905753,-43.454249787185375,11.121790233105969,1.5769066e+07
-109.06471908898975,17.199791776297758,43.90677146293411,4.231069e+07
62.50759980529244,22.605639525353325,40.67017208310172,1.4272758e+08
108.43054236556884,126.21905781714014,45.69719010477512,3.5669256e+07
198.08276990450264,6.2671536945835555,-4.8257972566365614,2.5656734e+07
-172.7687605624121,-7.287569869190094,-1.222790518276418,2.409169e+07
25.133050450801505,129.05932103648138,17.433175969879088,2.3524604e+07
-20.91028204835115,-155.9453970407394,20.73376303265076,1.0933119e+06
173.36665440899327,-18.887488786399558,31.136463234483664,2.960576e+06
-58.13289572568016,-143.19668713902828,46.8576987918439,2.5993678e+06
-97.98203906832151,-27.809347666057988,9.485720967968426,2.4426922e+07
-69.70297239647593,-99.12948340231445,9.286858933305187,2.2572136e+07
180.876081887277,-64.03867739219442,23.91281103890117,2.613398e+07
-140.87596650708053,-45.710896235391004,24.322790338143324,1.310708e+07
181.2989054765112,16.869874621258248,-3.8118182998803567,3.4664464e+07
-111.75464212830703,38.70705537031472,46.64647708269828,8.830468e+07
15.182468798297123,-60.47116940625162,-4.912362002955807,4.872474e+07
-123.25353546148054,105.53249548233589,43.229840762723256,2.320146e+07
160.69294504321925,-24.570677477832845,45.98599026688676,3.2692722e+06
-57.157813719163414,-172.24638564157658,11.332566897210306,382000.06
138.99435585065822,79.46242600007429,41.151291453684244,5.0990724e+07
-184.5843348015295,37.64824934661448,-2.664250808729052,2.1925728e+06
99.43641941653846,16.690259314391398,-4.874598900182101,1.5849111e+07
175.51283892285545,5.298078746936056,17.982565001324627,2.0116069e+06
-158.89736017130713,-112.95226800171245,11.041764111038809,5.510243e+06
90.95306982961353,126.63824189514497,42.59197220287171,4.8356012e+07
-180.8064301875146,39.53793317109702,31.80705603897085,1.5026965e+06
5.960402828059443,-117.01447378888706,9.30170232406325,1.1320891e+07
89.24340305428302,-113.93606787648574,43.28921966286901,1.0229207e+07
-46.45607457283401,25.286129979599963,35.20201963541175,2.6714164e+07
-133.58160387320177,-132.45565978042578,12.071367587653125,1.8932758e+07
39.27972733174212,-91.17201768211893,25.574873986441478,1.6132031e+07
99.37150042992909,120.31984454342319,-1.00641653023869,8.039449e+06
128.5481491095814,-49.80178129373948,37.712223261428086,3.2917136e+07
-76.58554485087924,-92.97445920280171,-0.1375170256216114,3.6184336e+07
23.131120418064597,-183.16693525251003,-0.45533646387810034,78737.836
30.197599977030592,-181.80366928690736,31.428225232245865,286110.94
154.0568721735824,10.186004138756573,45.732117390434034,8.0341505e+06
-59.525037543430585,145.34216165679078,-3.6420435192629514,1.6759456e+07
-138.54166189777243,-105.95162239871394,-4.147884305534084,1.6848062e+07
-88.57900512025363,-84.72598262548661,-0.17374679541850657,3.0588538e+07
-25.018969512544544,-74.97473277735313,26.16843157902301,2.0854198e+07
27.438149191521603,141.1884903239291,45.40341944118681,4.953348e+06
74.7685666677977,-64.98647234391026,26.400848979985188,2.3468802e+07
-74.4524755932666,-155.8506646130771,35.05673977965112,5.9745605e+06
78.55092144190678,-108.32765812837164,35.523252219917396,4.6067276e+07
132.77148067529407,41.80365657953456,-3.5016621641692236,1.981876e+07
-108.47266663394757,51.77590989367718,-1.7964375965311974,1.4127334e+07
134.38391663506832,112.13660344013124,-0.29869575773503954,6.330551e+06
172.76120076104337,36.54625925200659,-1.4651368791739925,1.3080548e+07
-133.74250505813995,109.60068054305731,-3.885825245359073,7.659096e+06
-132.37518949022393,-82.28326645562339,42.63436903990852,1.4564021e+06
-110.1427641326511,-44.580329049507185,-0.2353625052965178,5.391197e+07
-84.10996548390622,132.07571148537556,-3.265556197443238,9.927899e+06
-94.04942194992157,20.187081240867002,-2.680113168414657,1.9205496e+07
187.448176661599,18.821317374689812,20.111713559041785,1.7032158e+07
-55.755535908971154,-168.58166523179125,18.11539135912805,2.1538474e+07
-114.46428876060715,135.28977777867408,-1.926961697227147,2.4928502e+07
-160.3655183767322,-89.31820245989607,31.932119367637462,1.3188141e+06
97.38203628019596,-159.63677145281181,18.678293455315032,4.622958e+07
97.97902900494637,-163.7608752814234,18.85961774083264,9.034721e+07
92.70491802405496,136.63096191953764,26.362907752498273,1.8712844e+07
-34.29084632629747,-164.2788539636866,46.54842547260742,1.0728617e+07
46.03105233047768,-158.5069778853439,42.65588688128543,294018.75
-135.02128559909545,-135.9026864116586,33.32592748524805,4.1666175e+06
-87.20746628633546,166.37869434610207,15.80993430106956,1.9015644e+07
128.0820415909227,123.69984912411746,15.857118995714412,1.582316e+07
97.85308037376825,4.823577621893918,43.78724462703177,5.5149636e+07
16.2217507149482,94.43087794809355,1.5893172231513253,4.0270438e+06
-16.57741674635224,172.3754840407554,22.635931589800176,7.381785e+07
159.14805509488923,-67.60206734754703,21.114643718172935,2.7067472e+07
103.54919026007298,24.429684202577135,43.13590304390543,1.1066987e+07
134.1429799979947,-56.241360412584555,32.04290295839142,2.4529076e+07
66.61952283603307,148.5156611700899,-4.891418721035279,4.631405e+07
-95.65809154301166,96.78362047304182,45.77926816860138,5.4752436e+07
88.56637309606367,-145.903713045176,32.2358160478588,3.463437e+07
-137.5879135029089,115.77828556513055,16.12812441785702,9.135985e+07
-64.25601008188698,129.66297958404448,45.01288542946238,3.3425038e+07
74.6499731138195,-74.91216296715584,-3.846277828807019,5.7345824e+07
-96.91132130802883,-41.579603490155534,-2.6091069681507357,3.1791326e+07
83.34391359630155,-126.91535885028318,6.251919322264152,8.474358e+06
43.806718591073206,-40.56914803544703,9.612312001096086,1.1415805e+07
-10.870650114849383,114.19414570916945,30.580941496874594,2.8928104e+07
-84.12020357415747,71.22201204004489,27.139807842954944,4.99062e+07
117.63035599567746,89.27251951420101,45.32236151914572,6.480615e+07
27.478004035456564,-193.84263389964664,12.317205723012808,7708.266
-51.30445351395048,102.71030286556993,45.75538598460662,1.4719555e+08
-99.69587625364015,-24.256054656684512,22.69521687706431,5.1132932e+07
-51.22810976174932,-101.8186497525353,12.819913305368345,1.0328105e+08
-112.51391644323354,101.5476226954948,28.938177621440417,353917.7
59.095817753042354,-152.92223029985502,36.4087139813229,2.0414396e+07
118.55479380741775,-40.20558138297346,7.144829541576183,5.2056615e+06
120.18790453034069,133.7668285913109,-4.4656490555089645,5.2466892e+07
-37.95615639396988,126.55475921439938,-0.6914375198560325,2.27063e+07
-173.88927115470108,-65.79802103080297,-0.7263352113344022,1.2302868e+07
-6.197439338649161,-197.88618034679496,-0.7023652247420626,7.0455224e+07
35.19806650243649,-176.95451406536438,45.94396120698216,2.52525e+06
-107.38583806724311,-91.32276290431564,24.435000112637432,2.1770812e+07
91.66962839186056,-21.740609635982935,25.73536567659576,5.979352e+07
167.12249579665962,-26.541513050479892,23.88532077349862,1.4289577e+07
132.96489315597972,42.98767668381413,46.805204924989475,1.7649528e+07
-96.52675617792727,11.085650161070447,45.977591138859765,6.8664104e+07
107.74091046723913,17.22200642640604,46.64400137036626,8.10391e+06
118.32881747930941,140.29747942909273,44.45264460036372,7.534118e+07
-96.38961156431715,10.391808510188241,6.559814872639848,6.1633748e+07
170.2612152577408,63.10512120632262,-0.3462403884884271,2.5489598e+07
-62.20008227412444,102.47439289563971,43.6693826223762,9.992471e+07
1.3402538160121082,167.42556022356735,-3.9612211365795233,1.2088549e+07
32.29192643500235,-103.07975482347234,24.29325941885186,6.4194155e+06
92.36155173049696,-37.81675674202722,10.879813174629781,1.477481e+07
-63.19365088286324,-148.3928305866021,46.396875413722945,2.8258615e+06
150.2840016012389,86.94674492628383,35.775000461392,1.0071889e+07
6.024974401095051,-92.45418466343635,28.40236549237131,8.3188805e+06
-66.34290946869174,170.61079951732643,0.7413145284582985,1.2537142e+07
-55.56829226139632,-85.3835242384138,14.095265467256688,5.005898e+07
180.9643629349847,37.0625015129545,6.794782540005967,9.06579e+06
120.21120190379378,-34.994183412542895,44.20572776632013,4.8631296e+07
182.37381666475954,26.170845795850312,7.603005719306298,2.097917e+07
200.11120734648557,-4.007723675540916,-4.321365225204477,5.2135245e+06
-128.1190763061524,105.98480911608709,40.76353376043019,3.2295116e+07
152.67612934115346,-96.70960047154824,45.20594342016383,1.5367682e+07
176.7004462329959,49.29327037969239,40.91145425819181,4.3748732e+07
57.11152197224004,-79.75228049162007,15.52466731481914,1.07768584e+08
142.05944360245826,10.332782097546612,43.40312419273153,1.346081e+07
-132.72232400081424,-141.0062023727947,35.410051411003856,6.29414e+06
100.93997025977114,-162.94181263079457,17.657931139953348,2.475795e+07
119.50997280760777,75.48264897301908,-0.9697257240270769,1.945945e+07
-74.12947446372127,87.29576550691189,-1.8514386906686977,5.7732144e+07
-0.15832248714744424,-97.79130938366804,21.20989644779433,2.8162912e+07
-38.2688443309863,-153.21370683721094,44.944652201955215,4.2159455e+06
39.27857362029576,-157.88307898270037,-3.800151008632389,1.4410934e+06
-78.76784526138763,-159.85765930374444,30.61344981472505,1.0317732e+07
89.32534684442305,158.8392163337041,26.17590764227529,2.6555672e+06
-151.77361621590217,127.5865324724814,9.356763878529165,943063.9
-94.31103814421799,-34.208656635174066,37.09489857497909,4.2176984e+07
-1.820904351255649,177.083097917953,9.30343461395868,2.6241808e+06
103.05657394562479,-58.845021998296716,46.31937661199685,4.6135196e+07
118.70285419041602,-115.44844175680025,46.89261448866039,1.6574188e+07
62.88490972244932,-114.92623087152687,12.016207885325056,3.1547722e+07
-0.1985283122383521,186.90081080236888,36.33080087653154,3.024747e+06
44.59761924226859,-139.52542189225173,5.16265035247628,8.559645e+06
-135.95658426032338,-106.97125711230656,45.648013903601324,4.1084748e+06
-34.78189174546483,45.987363785116315,36.98966208062027,5.1603444e+07
29.998924524289492,-87.13071729565242,10.32006528132096,6.2183365e+06
42.151548121988014,-108.60962624099044,22.264596558151446,2.1279856e+07
-197.0584586759146,6.502499242315395,38.89773337990518,3.7208052e+07
-86.42898339218746,-85.91039151996137,21.779016152230973,9.590105e+06
46.20808093251486,-183.97237001914266,28.631107111988932,1.01946456e+06
-170.94141764153463,-59.583893572430725,34.6456022749781,6.930765e+07
117.12097579631507,145.35276645255573,21.98824069771083,5.5886188e+07
97.48880243195015,-143.44242238040886,32.99684940654759,1.4024275e+07
140.63102744682453,-116.74909503565802,32.39556678419694,2.5839692e+07
104.25268076298693,7.624606618949116,41.24650281245856,1.2120004e+07
76.72134152617724,198.01471972125228,30.36859293592064,731799.25
46.78504953098144,-145.5253731245588,-3.2409042825486765,833187.56
26.528142756549016,182.3110046115592,12.705773817612663,5.210914e+06
-143.17858774176614,63.27691678602332,31.255138278659956,678815.2
-85.10677851336382,-40.88123347956821,7.828890484790438,1.3917039e+07
79.69166677632649,123.02709147472143,26.387647867146928,1.9310138e+07
28.587918958754955,-87.44148778797513,22.461839761040768,1.0529035e+07
-140.99333128545754,63.18042537662802,21.27802587878709,2.7075378e+06
-79.04892864058777,62.85160479136363,2.7306104139478764,2.6288024e+07
-126.83108005287045,36.295741062595,45.490047005339655,3.9891156e+07
-173.2016915158453,-5.616868680916724,45.71763668292371,1.8666102e+07
80.88404603848471,-151.54269368542586,24.027099955368964,445676.8
-101.3713706915742,34.63795065617856,17.89291753802961,1.7041358e+07
105.06014639373092,-16.301712878447347,46.444517426299875,1.0974711e+07
183.64925691917023,23.677515137515,9.466742759151384,1.3678358e+07
114.89913729568497,-3.18198581073662,47.48358921851412,4.303763e+07
5.468005582940634,-153.37294702558165,0.5032789906389539,9.835992e+06
-99.28233303581412,-103.20674050287302,-3.3499995208172244,3.6185428e+07
-182.50422708973798,32.71682269461374,21.144114662226947,7.5463085e+06
132.00065539398537,-39.251820910015,-3.2691027568136173,2.359339e+07
-12.780702232001886,-186.9087594077662,13.285087967072254,260399.03
-109.0335391223643,-6.346542502514211,45.59769327459932,8.85604e+07
9.107732960778264,-117.69383102231235,16.522889602834873,1.753741e+08
-75.98936592956619,84.19373645676171,-1.3823598651363915,4.379548e+07
-111.32175645993333,-63.38000345759389,-4.860475999228929,4.6216584e+07
-138.4637396156913,-91.11842041879055,34.88142714358233,1.0709702e+06
146.08615878678307,-123.15174763395878,9.042422278848154,1.6088425e+07
83.07878290538719,155.19869746816119,-0.052911458510808806,2.1313806e+07
26.631780016796,-172.42832728864934,38.24378025617757,12314.633
71.89653661830675,-175.69675587110126,46.0386989318475,4.5805965e+06
36.57741972693648,36.69519598699969,46.32934251354042,1.7623984e+08
122.9201433051474,-10.037952322612597,26.576048860306834,2.2266545e+06
-167.31173083693616,121.6888205581464,45.10907373139565,2.2931845e+06
96.27714963449165,-105.28072170774634,-4.650401963170426,1.21632456e+08
-21.320187586642135,-111.10235594175751,-0.9129774847720782,1.4093582e+07
-90.27152073571672,-159.5094195013357,0.659939403926999,6.205034e+06
-106.8055210811638,-108.92766864453469,42.8767080402518,7.0964985e+06
35.82264103078069,124.57542122753455,44.30607020403595,3.1317838e+07
78.83988964467602,-96.86619406060893,30.509930438546036,4.7484364e+07
76.92386265254407,70.97136993897459,45.094296258582204,7.943724e+07
-70.91832231607174,-153.95627645581646,43.230621439303356,3.4813965e+06
-57.804006323040596,155.19728957341658,19.41704092280304,6.7422056e+07
1.0477693195438746,-114.80016994280403,42.53184871415333,798354.9
136.28404493259978,-122.71608754653047,37.481754855545944,1.2915986e+07
-142.17536165607495,-18.619474809843837,44.5661021286155,1.0207698e+07
-31.31336032360346,-186.11852481885586,3.7525985894345197,3.0845155e+06
33.66507245057153,173.16368130715512,-2.9919890998553362,2.1418648e+06
166.8666374044849,-117.42005196017492,36.96103454627752,62114.984
175.16502925237586,-10.68732306775081,15.57672991095395,7.63242e+06
-148.9752159677527,-12.98436787154131,43.129144929330344,1.991042e+07
97.02116740560723,-46.4997353606752,-1.1358022074354714,1.4224963e+07
87.57275001119888,56.05911499572608,15.764517066664492,3.3086632e+07
27.79158250419053,150.13133556528413,45.959841555723195,2.8952882e+06
-135.58590062049961,-3.9056701460700936,-4.079792525102098,2.1844212e+07
-56.19182015589567,85.16349216664707,46.30226931078321,1.0498769e+08
82.14647781135238,-98.91233804196114,44.61685726441657,2.0968644e+07
72.53105095598175,-25.15759645735929,14.839509965678157,5.04938e+07
141.8611768503663,-35.989530870868094,-1.3486385288534057,1.9602568e+07
6.995880201761793,92.85498128004338,8.342815354236611,3.5659696e+07
-8.368601973455242,88.063645784796,15.50026740380424,1.0524356e+08
-74.2155246589978,-142.97766633317462,10.326519786966804,3.9802724e+07
112.82254146417733,5.339268094690965,25.65822967251926,7.902668e+06
44.2855537361952,-136.9294278439986,-0.19029331087983614,1.4278876e+06
33.00803959988784,124.50977521041216,42.369834615224754,7.0125135e+06
-44.01466783389833,-43.17145774718503,38.53108335135905,3.965884e+07
9.317619780691956,187.1538810373488,32.114546712004135,1.012495e+07
-76.04589276468275,89.92975546379591,31.488088993967153,8.718441e+07
197.047751740607,-74.84538663483326,31.26052085009193,2.6771786e+07
109.43409512443606,144.29090923753756,21.81954616916131,2.9781118e+07
-136.577915908056,18.061284019354787,-0.018336186889642114,4.510341e+07
-44.90477499337095,-70.75651739078353,6.808736526092737,3.78967e+07
-2.848945054432818,114.1340008072608,30.39016855641767,4.7090416e+07
108.91558599633072,166.5382516615603,11.364417731673747,1.024541e+07
123.98901706669477,98.71218754015933,-2.8313955706993412,2.9316562e+07
-80.51781787330603,-85.93747567989826,45.33719083980971,1.0562356e+08
78.11793754820246,-56.31905478350481,33.33090995899784,1.4724979e+07
83.94868782252263,-74.85009552024661,-3.218009714346346,1.0968695e+07
165.61448213513785,-21.535992584421876,42.067793417486556,1.3189634e+06
38.76352625738525,-185.71919633366304,-3.174097262379225,143056.44
-98.0297886920452,-156.82624275832154,12.209900389740554,2.1568618e+07
122.38917518980548,28.661168778802733,44.407424413763735,3.6670532e+07
-68.40167893477363,-157.58845608879193,26.84110473818305,2.8494192e+07
4.2708149281559145,109.93444277816911,44.8057273446597,3.9624314e+08
-5.832734962445215,156.75941112437056,-1.2384056912958785,1.733939e+07
-110.62503075570945,-42.37793502081982,23.20689707417628,2.6477238e+07
97.31644025010041,-200.60278711125116,46.34923281361077,2.9715952e+07
-123.46837996198256,-8.608305825554453,5.255208814178472,1.0796072e+08
-163.91349912054918,-3.166214040958778,45.206804025970946,5.431461e+07
7.419511415573254,126.37838314694875,46.3099330877349,1.3288571e+08
116.03509836540559,-74.92823855808254,-2.390017985655544,2.7096096e+07
18.83266737072003,101.62651878856713,23.94154841859439,7.3911816e+07
68.03896960611542,72.57018488829931,-1.5135278659662772,2.8763888e+07
-69.75017713472317,-98.72387696557502,47.2798467717554,3.368905e+07
85.50024123883566,107.09617376606332,-2.7483009381624752,3.1643848e+07
49.24666607623925,-89.34126397397287,-0.0917837686733396,2.1398814e+07
71.12470669779123,79.4909584849658,7.921479298069951,6.4699292e+07
-85.3190212432458,-63.783753846124,12.899328066728934,2.2212052e+07
13.08038884230055,-109.54912206729226,43.97487417130245,2.3485408e+08
-106.39249291983491,-27.791484540563317,16.7583869802366,3.5003092e+07
100.14523045501596,116.53463741764767,-4.135561814727808,4.734757e+07
39.1159199302318,98.90923634150994,33.296442225985956,9.1237784e+07
29.48339027933156,138.6213904462582,11.420459856922566,3.9591244e+07
105.59275849070593,-34.24583075618281,44.11957439990805,3.6571304e+07
-125.23581107709603,54.811040865461564,22.34624374939971,3.85339e+06
86.79534961125484,-56.8420947188026,16.2888514149866,1.8414786e+07
-170.40811635968973,-71.16037364020923,6.2133807123340805,2.688552e+07
-48.47583038367449,-86.02967845028451,43.93557647698392,2.7135096e+07
16.171439857571556,134.46857055592216,24.744512867085415,1.0638101e+07
-162.7940905231136,41.07782513870012,6.551380799107486,1.1430713e+07
162.57556687594524,38.586622223495226,-0.22720953092905471,2.032578e+07
8.953778149349318,-198.03183228366643,-1.038753202397559,4.014025e+06
127.68551607153631,110.25237070136632,43.67012295536577,1.016437e+08
-150.14892208838668,30.327182995676367,19.549053560957205,1.8130474e+06
132.67378405761548,92.35558350380086,-1.6497665881126968,5.452906e+07
-76.88819472174762,165.82056082822777,-2.0414473159118343,1.339889e+07
128.2761951317906,88.33834500236765,45.25346052984407,3.2217778e+07
-56.165852897110625,102.0342046343734,46.70535468797966,6.1017892e+07
-98.97837524780412,14.539323613337672,29.833499810956646,1.8720126e+07
47.72670201737742,-87.67387893887629,44.11123550886686,2.5146304e+07
-86.10915807508613,162.97409094430628,12.508693772054002,1.1945996e+08
-21.791960506046735,64.77640402097478,43.630501727562226,8.149148e+07
-214.96195104183656,1.40046757212329,30.524453731316598,1.7166578e+07
103.89691631195387,19.892749017584265,31.3530586582935,4.624376e+07
-68.4735488224049,130.33508857251564,-1.714922898534594,4.211004e+07
156.52394184247754,21.189192296923892,28.109343279809146,9.435236e+06
74.05477623414134,163.2111788690092,-2.924771372400886,1.690207e+08
125.69379075802203,-112.38137662017839,-0.7052186188483454,6.1980255e+06
-144.26960884143256,-108.85045126676575,-3.70828390431792,2.995113e+07
-84.30542246056223,122.09315838436765,-4.882309106049718,1.5524321e+07
111.29047046592115,69.9457461487487,10.472652916064511,2.809686e+07
180.00112794953088,-31.672527261584662,44.348656015597285,1.5356262e+07
-31.569893695183595,-109.15540243452705,26.430202908701183,1.4226211e+07
89.2497349482772,-99.45457902542798,14.90842361823334,5.5256824e+07
89.14552362079752,-38.003693980113866,44.02356261830195,4.74711e+07
94.68968795838691,-151.1176116584494,46.34938514736425,6.647468e+06
87.59636444658577,109.67852679327467,8.177927975532384,3.9691156e+07
-62.35389520609539,-179.0011746638558,-2.5802059778118966,5.3359692e+07
93.11354083083938,94.71073098694995,-2.988991303872495,2.535233e+07
175.14931383906674,-56.056928799909485,19.04393878418166,2.1137236e+07
83.37968587349297,-74.46959485826687,32.577325557698295,2.9042438e+07
138.64492206969783,0.049280671573768586,-4.306585027521046,3.398344e+07
-9.39425612768946,129.05013755767845,43.4393377372815,2.9873404e+07
-37.76500385521334,-167.25686596227857,44.26793027043139,1.0450573e+07
87.1397612816599,63.413570532636584,-2.7793959851579237,3.4149916e+07
5.201904202393706,181.42444592689685,15.496454629391422,1.2513125e+07
-30.21633381639319,-178.03629056594505,23.63805101325466,2.394819e+07
34.98343156167681,-109.01660035330045,46.800710884966804,6.4256764e+07
182.46332118433514,24.823598120776296,-1.4123748698827336,1.7660216e+07
-110.17581674549402,77.17759923537074,23.000044537240164,2.9584858e+07
102.04570927932531,-125.33424741196475,-4.611146154336778,5.646179e+07
187.84051445928958,19.587941516391368,27.45053908981197,1.5444561e+07
-140.0336388905988,-92.39746594652779,11.855240941765306,1.4176783e+07
-128.62731875581198,-31.020245322651988,-3.328657370615886,3.356867e+07
-171.3345183236912,-72.83309280914247,37.96236594966025,1.5732146e+07
162.637068819908,-85.3517675440163,-4.375962105894596,1.4293248e+07
-186.132024602971,-1.0507873447559462,-4.447232562994231,2.209092e+07
123.39589176200343,112.5406980343862,12.725616496994206,1.2120829e+07
54.06309955520544,155.13855289268912,43.77331422646843,1.6760625e+06
11.738467944953953,100.83985238327398,29.57858061632443,3.786313e+08
-15.826294610160772,-139.48370503634942,44.7803171516998,2.7554768e+06
-125.08291188017819,105.2079260679119,24.53439616131758,1.6521235e+07
127.77024487413019,-129.04104580488945,34.959009759563294,5.618021e+07
-0.5424727870507695,135.39308991879716,45.030369704921576,9.2115336e+07
-14.577104919056723,144.37221610050153,43.9696212314472,2.6890824e+07
74.5373915604049,121.84537767255966,19.20602217490054,1.1749545e+07
-109.68083077164131,-60.109191235172204,3.805688376559777,5.176861e+06
-211.02421564200492,41.56358980203942,43.12007310090247,1.05039e+07
81.2582924550631,-162.0975880362919,5.42094037574665,6.3839612e+07
54.42678800443713,61.454952111898876,18.948905230036118,5.7909884e+07
-97.06811389700638,-154.62927719636278,-2.2018159556126484,1.1046563e+07
-60.42523345157883,172.72974401110145,-0.604544164871708,2.5256658e+07
133.30740248280608,-134.61301816901843,10.128815343516997,2.5136074e+07
-133.20583297032167,-33.67016635146686,18.794738670949837,2.7542092e+07
-162.766177474694,-18.66360745658747,1.5073126049743433,4.143513e+07
171.83883607514713,62.133202353144895,17.650589582151742,8.558728e+06
103.63184431748482,-64.11278358582328,44.70088913870949,3.4138772e+07
2.804596361549983,-101.25570263232132,46.72244609287884,2.6695255e+06
-30.09812913755124,94.33963350878832,20.252569688882403,2.7682156e+07
128.9683560277145,148.1925991792229,26.863834915973,3.38561e+07
-151.99814117875616,-10.806215695117146,45.7592837372391,9.557831e+06
-139.9349612402536,98.42235711740199,45.36590193010118,1.446124e+07
76.59557979594899,89.2917954481772,16.487611932771078,2.8585862e+07
164.8373462588077,87.932847459159,46.41895787908407,5.72386e+06
29.113367604639507,-74.26208639144505,24.953854853437715,1.1559876e+07
138.21022939610464,42.19289457638831,-2.6302471279303767,1.0209173e+07
59.009514105141875,-72.60659262776943,31.73961392582543,2.154697e+07
12.790448596697672,-183.50649806524467,-1.7321205529781976,1.9798291e+08
51.88856741025455,126.04937272802977,22.047553325273434,4.01567e+06
23.545543224320454,121.52834201309622,-4.503948896170888,4.7420116e+07
107.73388542703196,-134.77849531239207,13.45983907333709,4.1990172e+07
61.542434262530094,151.99217721201626,-3.611673735524742,8.634332e+07
-55.604440896596174,-68.25186186422917,30.79651275835591,1.1272468e+08
-88.77880483971785,-155.05220244625775,44.3409973850347,3.1747964e+07
109.31405831799651,9.81996191943469,22.20385328299787,1.0637283e+07
49.93579498573132,-46.826402541114874,46.15820848874062,3.9247924e+07
-63.50826509245559,94.35153493334803,-2.539245099203428,4.866528e+07
146.16234890628317,94.05036447567852,-1.6341653461227121,1.2297382e+07
64.48636004699887,22.6138325499565,13.373700088604828,7.704946e+07
155.13621782741228,70.11518363021241,36.36926259197838,1.1611835e+06
-8.209486975367412,172.71582256627227,45.289702336045536,4.390257e+06
36.31825368610808,115.40668039171356,15.925096990564661,7.243377e+07
172.88908030034878,75.66308719287503,19.37926626256254,99728.945
-81.38423366562083,-132.73455753955108,-3.45587658601068,1.0213993e+07
43.10373487416797,-95.69028265483125,-2.621284026489689,4.0608252e+07
35.67954126210151,185.95153138728222,44.2551724099304,1.9378604e+07
149.2833545506976,40.79422203522398,47.056047182187264,4.1499428e+07
-9.7664901077884,-161.4884556817713,8.463163254026483,1.0577216e+06
71.62668105329544,121.22343078140887,4.701897679743748,6.5557175e+06
-40.40485376373093,85.98834740515468,17.71106891318303,1.5722547e+08
-109.45300590666824,155.14146732413747,-4.204774554965844,1.8133352e+07
165.2152440141835,-62.356888082052336,46.62087321615552,3.967789e+07
183.98442658794892,35.20182731826404,26.7637066692906,1.3031474e+07
104.95204447753935,117.62580762521372,33.02375830350067,2.760175e+07
-110.51203898146193,-84.13043331900093,25.06394863648078,4.8179135e+06
-23.531754941287943,134.70274114326912,-3.135542964019551,2.3833166e+07
84.55135379918744,-81.64190151904387,25.109169047908704,1.9869186e+07
141.53665585611833,-53.63435618329157,46.49636688202369,259593.95
-131.00691916423517,-83.00327607945252,19.15426325155485,2.8024824e+07
170.2463238306102,25.239203223166527,44.54549176822938,1.1930088e+07
16.843637388494102,116.54306288392053,-1.3598560163128983,6.552287e+07
-154.47175267377824,-94.93395502959233,-1.1851761720199736,3.9511335e+06
86.09635839132329,102.8999562573,-0.3536990748733251,2.618026e+07
-88.25338190809828,162.51087324321264,25.38187739407178,2.3139024e+07
48.21005170864731,146.59858902312658,-0.698714449255113,4.659068e+07
87.59410046191351,-143.92727569781897,14.027001863028374,2.248954e+07
140.36878369174798,-90.58260113459627,-0.695712362141081,1.4214421e+07
-112.00355031316869,-146.498419478188,-2.136224109831564,2.510752e+07
39.558612171300865,123.15990402762725,29.245840732260703,2.383671e+07
82.19215535658947,64.92291016916528,25.334225423325336,4.521961e+07
58.72484036651281,79.0365330737423,27.50132513156646,6.529235e+07
-5.991075515943862,-200.85508508969332,-0.9353216551006422,6.905355e+07
-11.757943340122154,-175.3226019488212,19.390797516102715,1.2645039e+06
-110.55828785399112,-9.350866042040735,47.245314682721435,6.7285384e+07
-81.85755379248303,-15.947331451745555,29.31219485137246,2.6602656e+07
121.7061965232528,127.1717019848059,44.441066397597226,4.9108204e+07
71.50798367893248,183.23086282196948,-2.0682555400057883,1.1711259e+08
-74.23708714585874,66.90538609224592,10.443345646994269,1.00599816e+08
-137.0197619088476,-52.42266204544296,-2.136975355704021,3.221755e+07
85.73255004729054,160.5669323657741,4.077487291146179,8.686041e+06
-107.83300846743319,23.73004673244006,9.646593088959216,4.6950964e+07
-0.6115506689054655,166.9866942007078,8.452691407768627,5.282292e+06
-57.56247189049557,164.96161260904393,28.48546484574824,5.2188524e+07
121.95444085630686,101.99632213362327,33.82953651931204,3.5900028e+07
-39.49992571904011,-115.64980566279831,2.2385784135952234,1.2709518e+07
62.512858054176945,134.6124551719875,25.780363064375358,5.162818e+06
-60.31949950607063,-69.87577222979706,29.881300332269724,1.1213272e+08
85.02282531373169,4.39030542854826,11.813108219131088,1.6446444e+07
169.97227547534612,60.78473031876945,21.961810791836772,6.2829565e+06
69.98640482920905,-148.06150931135744,-1.4278992049989778,1.1323711e+08
67.06506755018046,-155.2948108480841,46.07075594284428,2.8192758e+06
55.69257984014058,-113.8224649081953,-1.5616461082669568,4.846656e+07
162.81635750367985,49.44997157470317,32.10944464385934,3.8357584e+07
-146.43287133063563,-19.976632905495023,31.82511455676051,9.728352e+06
61.77355990403663,149.7223132046296,45.251835882010845,1.2268876e+08
4.112484364878071,95.08682703464024,14.379680787666405,4.642427e+07
-40.51120109898639,120.9031847475099,-2.221279127331269,2.6794084e+07
55.33018365213775,90.33346233817139,27.170350569242117,5.5894445e+06
-23.4412744814054,-113.91125875132956,-2.0252591840083527,2.6611062e+06
-141.59334015654102,36.987892410141825,23.790297768302704,3.2879174e+07
-98.46462510780484,97.12225336467066,-3.3652616807391653,5.312686e+07
-63.552357606554295,-73.15694896373134,9.030544930571292,2.6658276e+07
86.9687125860483,161.3042033083949,15.469068749934554,2.8926254e+07
132.33286790167136,-136.71049691789267,16.23054430107567,2.8586478e+06
-86.23782225625945,122.9072927956924,-3.3440274841439517,3.519119e+07
62.94092642330901,-73.43906007156437,45.20472768004108,5.844321e+06
-173.49953801884925,-40.76703478471353,-3.9253803426340004,2.212017e+07
40.94002007547195,-89.87636055005653,30.228956263932822,3.237104e+07
-112.74048905934865,-141.37604617402098,40.11730584750097,1.54578e+07
-161.62419002920814,86.42808975128048,8.595103428133411,3.9968062e+06
58.33723200271646,-73.88569998379663,32.71521036595471,1.2817527e+07
182.81550528499685,18.03440186077458,45.51373672583886,1.3674226e+07
67.62097122842823,122.0008249291464,-0.7188069272946889,2.3807334e+07
20.202372815774083,173.21298261109962,18.88453498069461,1.2677826e+07
-84.97485555713732,61.10595618691934,45.920062313430186,3.0694085e+06
122.06832997329411,-36.574745421439985,10.920425534502609,2.3083212e+07
10.360083416899727,-123.75503796761676,12.532212258648794,2.9210234e+07
-22.15930353035739,160.19471794594847,6.856166294637218,1.5396888e+07
-14.694204670389752,-110.77377318180686,8.316785532282717,2.4101434e+07
140.20188258562803,67.17982467345348,40.123150594895556,3.486297e+06
-140.749935968645,94.48772916568106,46.18762479210311,2.773231e+06
-143.42375095016308,19.302315051516644,-4.113765831898223,4.493202e+07
-132.3572870836998,-109.04010229610765,46.19577453872595,234402.25
-21.82970272111683,103.44635508774758,45.70475456876158,1.770147e+07
99.09170102963549,19.836656562773896,42.813317392670974,2.0043056e+07
-139.62554981201748,-96.94291372375882,45.91417375189678,4.402741e+06
177.81646784448043,-40.42009644032123,43.62536295719991,9.126007e+06
-139.37141220140677,-115.06258156311799,34.93196459862515,5.753213e+07
-163.36545437724143,82.81868675606694,22.838737336539143,616865.1
-80.13122562362514,120.70702151051893,44.945076858824834,3.2811402e+07
-142.54232596781023,-44.35896045518814,40.993572709993956,5.0302656e+07
-49.092401782821895,-160.61518756157977,0.19521420681989632,2.7448086e+07
-4.338751475479398,102.09185013321706,-2.0546951106115303,2.7647334e+08
107.00397670145776,137.44058831788772,26.011721729437046,1.2797503e+07
23.575082025673424,-198.11009123065602,12.145741016064274,5936.4
-46.493348743931506,-84.80702633248404,34.59639078001595,6.6296704e+07
211.3851111516894,-71.54881434172466,35.04700676844912,1.0744925e+07
39.08306369737588,-148.28589715430502,-4.983953134263394,2.939153e+06
-98.22254206990385,-48.31530881437513,25.752158202557954,2.6051888e+07
-70.01479720514817,-69.33989858646686,-3.782187969339367,3.712439e+07
-69.31138934518859,144.62476237311847,-4.025727699652485,4.8899896e+07
-76.01867764293243,101.63741255123506,-3.3835170692458156,4.8938656e+07
-73.52322595888742,29.931671090820686,11.622382154300617,2.096565e+07
-43.93770118493683,-102.62227749229274,24.62672518864254,9.443299e+06
137.47245802373237,-108.07017667105936,39.05105957314206,4.1986456e+07
-13.079367371099949,187.07681133161208,19.92688524405253,3.5826776e+07
-27.795370422446922,-107.24081166536264,11.514236013494962,1.0592848e+07
-117.77661915462721,-119.29207435960433,16.914596471865938,5.554872e+06
-79.088949167533,-164.03419007895593,15.584045424005158,1.196743e+08
177.91743261935596,-10.951274018846647,16.49648273195948,7.1205465e+06
-18.38063760545603,190.9686013267742,-2.4116937991578737,582507.56
162.73488373908822,-87.34220245363137,12.893154429140829,5.583113e+06
160.42672496830448,21.264033587782734,-2.7203275374989637,2.2532036e+07
-98.64745795686825,-42.15408581238836,45.24024710471218,7.5321704e+07
-16.600891781783957,94.37780205455942,-4.8429854208475245,6.83947e+07
-90.70404807521396,-108.8966143700643,-4.9476212837161455,2.8946466e+07
-4.613365719858706,139.38551963031443,-3.4182080995613404,3.6169904e+07
-2.7818190152344187,-172.02981202916573,21.58936379215032,318048.56
-78.46747525867406,59.02046894060453,45.19417821193765,860871.8
-19.302836543820348,-81.28523885770772,21.008188939177764,1.6164763e+07
-93.83530132592692,-153.5411185850997,5.5433981424529115,1.2153721e+07
138.26393363414155,-190.1412427088334,13.535450603203167,2.2162474e+07
180.01061975797637,13.711656268210305,17.47220821509468,7.310187e+06
-141.30638051615767,112.04918606502986,13.435757966317755,6.7962536e+07
188.16356157518345,-3.344859226485312,8.454331750949175,6.229594e+06
90.32446087681984,-29.16955912302106,8.971519137797028,1.6240664e+07
69.92794140453174,-130.52287560317438,5.663981189078116,1.7526542e+07
-151.65677111683686,-18.070919167219955,-1.2460511612002274,1.1944024e+07
84.15502807845064,-82.94104270438277,13.207073534550158,9.918824e+06
-198.2326333069828,-19.11063053236711,-3.9745707520494538,1.821359e+07
-143.7897451498206,-103.69482567242193,21.946821668861002,1.8081328e+07
51.13512764431687,-122.25529276171622,-2.18553015523348,1.2159211e+08
1.7131537995006738,-173.36679196007117,43.40538427818495,1.6365004e+06
120.05973111473804,92.01894205393296,32.229356648612814,2.227455e+07
-191.32774368243764,-60.08768395108092,40.270558088454074,5.1656605e+06
36.413178329855185,-124.63258288727893,46.19954511367764,1.2998019e+06
-164.4886600184231,-118.34472941507028,22.06516793847527,1.2501421e+07
86.86698253527646,49.08236101677119,40.460368270034614,6.129043e+07
-157.14498324231175,-52.49462944321493,44.839042022135146,1.5128746e+07
-9.529904549365398,169.55983404683326,19.10712825196397,1.307169e+08
-159.24161380416615,-25.22227465023613,18.95518030329719,6.0090545e+06
120.45471770134111,-76.71674443159944,12.701553893091855,4.4023052e+07
152.14523097877662,-44.095515880849234,15.030579120320802,9.731167e+06
175.35869994253926,-3.186933970051399,24.49006603309928,135616.1
119.8503733645332,-99.13119004042932,12.263720984045758,2.8200026e+07
-109.03326058606052,-82.53779040264598,42.654613032939935,3.8643105e+06
80.86712741832525,40.489619210999024,-0.530276159979767,4.3568424e+07
-70.60579681034613,139.86300742738428,-0.9806750569566214,3.8125904e+07
75.88363300045233,44.63606911635907,13.20160504220669,3.7057684e+07
-122.53376707333356,103.19808870170561,42.23620071840249,1.7963834e+07
-82.99193358436872,-69.97864184783884,47.258959810878586,1.6014155e+06
-137.10005728377172,-97.85978147297635,20.281330840032442,1.1726052e+07
104.46417062099783,3.7297362521377124,43.13116199024525,3.8427772e+07
-156.4681355033413,-60.048934432961346,35.23895298149639,2.3282026e+07
-175.45956097826362,-57.7674232964913,14.38877833776425,1.3762324e+07
-22.282703937525383,92.6885532486827,-0.37528076385101716,9.832739e+07
146.46403015358845,130.33020552357692,33.23946466336299,3.608249e+07
19.96886204595185,112.27829296539204,22.276246434159805,1.0906796e+08
88.08002341632277,97.22372749631512,-4.209967988270421,6.657477e+07
184.17568596925116,53.35642524112956,36.70605189897173,7.5860175e+06
84.13028407502634,-152.98735959719986,19.509368676097385,828749.94
-75.2938907529772,113.76563949242336,-2.463081585862101,3.648578e+07
26.513962260179255,152.66804621824173,47.38599086969727,3.2048855e+06
-100.53247874576323,-89.39081697682515,39.9875689567104,1.768196e+07
52.10697516280794,-80.39964210801409,27.95765543220775,3.1368996e+07
-180.3500164245589,50.373799238088566,-2.4562683583074802,6.131811e+06
-147.74792189770886,-4.116763620682434,-2.766944505473805,2.1918192e+07
99.49151236478349,3.564398364827582,31.494745007327936,5.0073076e+07
-183.62241606850247,-11.004202395381839,-4.003353265580957,7.9967215e+06
64.23470278158084,75.92553891576375,25.924198841010035,5.4700924e+07
-106.00290095591083,-35.44407665750737,46.22426611467217,7.1317605e+06
38.85776166164882,-72.4820995289424,1.1329454383961757,2.52101e+07
112.22322303283386,-160.1301121233869,19.910871974376857,3.850726e+07
70.02933087297816,92.37094664920369,16.002799265988127,3.47962e+07
-38.14726033771606,-117.82485702250992,43.00370585115612,4.1376045e+06
81.47310126164041,-138.22884186946806,47.12855613224644,3.5793612e+06
-64.79522365715127,119.82921557668976,8.144432427141282,1.7497744e+08
-45.08739651365113,-95.45733755892047,43.018860127324565,4.7314024e+07
-176.0970219593624,43.27921081889065,6.860286727048345,1.166515e+07
97.0450091343439,-184.69681863216124,25.129705800268287,360102.1
-86.83552407696368,-108.8404154180576,27.168844809410828,4.3577324e+07
95.09603703957362,-71.78873131464576,-0.803486648076996,2.0527362e+07
-6.689456586482521,100.33802837172647,8.830947345854886,6.6826824e+07
96.46065428197915,-149.95506232469359,7.652013043601913,2.0384236e+07
5.012841157912703,-181.05367278130188,31.223498043545604,71127.83
-102.36321485252577,106.93909044244441,45.85385721706013,8.677028e+07
4.839069929887984,-182.32930670607004,40.040649726368436,1.961549e+07
140.43170166347096,-112.13955536997854,-0.6322969077309963,1.1821909e+06
95.14881664757064,132.0322569763211,-2.079936901608143,4.717313e+07
17.270616710065582,-172.10333958463013,-2.5310747331369345,1.4903665e+06
114.24758999372165,-36.194176615436646,47.14827360865464,2.6132938e+07
-29.297689463706746,146.54945264146284,-2.4197298878227773,2.0644278e+07
-57.67914412929471,-101.47714746182284,-3.948291503251717,2.5592038e+07
-73.1994481185524,-70.41120243932977,44.04566546879762,6.799889e+07
-156.95884078457817,81.64355771289979,19.476798740624446,2.8425532e+06
124.13931055149618,-108.9608276630971,-0.16485096600243665,7.106569e+06
24.808638659052235,-112.69579727425217,-2.0642046108845817,1.912184e+06
177.7350081536988,22.167617647775046,-1.831593662613959,1.4681227e+07
-19.875724516231543,-175.5304660262592,42.27027230687592,1.0063592e+07
52.140216908409855,174.07338040186278,-3.2705755068537945,5.481326e+07
-44.01297747974655,-201.79170887695042,22.254713714174567,2.7172298e+07
-132.59271630751556,51.74657249923331,43.36516401910543,6.94012e+06
136.18627200944638,-96.01873090528501,-3.48971801448383,3.703275e+07
102.18804664788524,-52.66910953421424,42.82279532336844,1.0143109e+07
-26.113724190983078,-178.5753420566112,33.177196099709064,1.2009988e+07
171.94398141741584,-52.82223610831974,-2.8658726999896222,3.3992578e+06
-181.40992011848044,-0.40818106113476915,44.31073549405074,2.930514e+07
104.46938065881176,-34.823758936963344,27.24707149668214,4.2631132e+07
-24.06232953855084,-114.94176195720514,-4.446066291049818,2.9355818e+06
99.94734122529462,156.34590301204378,43.89274332554811,7.692807e+07
-101.34606604776359,-5.882975212445757,26.00946209316757,5.922829e+07
140.7668606377846,-131.13988247224916,44.790160133520764,5.464129e+07
51.26592222285518,-178.5160929579137,45.68736540218077,160112.45
37.67822635081802,126.16773711603037,25.413086087384176,6.6525215e+06
-82.31292522349435,145.69987128595562,44.23939602286737,3.763152e+07
-172.17205226485433,3.941226215554252,21.52918921415942,3.751704e+07
-49.50922944411883,201.70229752479668,9.20105822787686,1.9910336e+07
116.24489686104079,95.40199077429332,34.944449412692926,5.965427e+07
-7.718018125328285,-103.98713602424652,-0.8632601188121383,6.2349555e+06
167.68675225142823,97.55234094528936,12.063678986356614,6.1879224e+07
-200.4607396008087,-12.269103742813513,-4.677912835790161,6.4795585e+06
-73.8809631735304,-167.01760842185655,3.1174683252889075,3.2462684e+07
-142.35907201452426,-106.08900557275908,18.00154453579935,2.009195e+07
-104.8065698500949,134.09747188518583,-0.321060143130258,5.7692012e+07
-57.58335626344552,138.95242368664032,-3.844345293015876,1.5061807e+07
107.00217791963502,-56.48648853651116,35.950188989559805,8.3476115e+06
145.30292387193924,40.84116375868865,25.61741481282971,4.9174308e+07
33.34241972780032,-90.10559642296055,-0.9318478317594474,2.9173666e+07
108.20708503352472,-55.497377295013166,-1.7905816301214537,9.595851e+06
-108.26008615218568,-136.4124242966186,28.298332499478754,3.8296584e+07
-159.14220968971475,-32.50989447573673,36.649911650063295,2.8196818e+07
-66.3375215830747,166.39603320454768,17.88028122757081,4.656967e+07
132.0813468361489,-74.85444466436445,-1.9187340458979945,2.6197092e+07
104.2145434763928,154.7072252450002,1.1729218978993918,2.6875376e+07
168.303544792712,-87.72541777728793,7.606685254222395,5.68418e+06
36.06045639926185,-141.40570512553782,-1.558303853605004,2.0808476e+06
-80.80592195277691,-97.83417986386623,4.3409920582670445,3.2414688e+07
-122.24593084067007,-21.77199354187465,27.944565323913537,2.037969e+07
105.54718323698052,-139.63494895764057,12.65688934396248,2.8266384e+07
-95.25673270968538,34.09535389334013,19.4699989684287,2.2293176e+07
-43.10141643581122,183.29317907727045,7.730486695550924,2.30425e+07
-20.60193472364486,74.35929433992817,23.17249930746129,1.0598769e+08
184.3618223115575,-10.65010844131325,42.924065718014,1.6296181e+06
146.064400902319,-60.699104868807325,-2.0916839370860045,1.1914832e+07
68.8077314975094,171.25715421053854,35.810049012434845,3.7103375e+06
172.19746595847175,-60.28794401946709,-2.502130033950266,3.9953818e+06
-51.59649342011335,178.75179498702641,42.707046858844514,4.0897964e+07
-60.39698041202365,148.04257432233658,17.92873609641437,2.5777554e+07
8.33743438062939,-111.82428918947983,46.700098469485454,5.300234e+06
-75.02684723215481,-52.0609914506129,17.899470721939164,2.0270064e+07
-17.22076454872422,95.57873881473603,46.70729838078314,6.2156308e+07
-170.2841382888803,14.27834252803467,13.588250845053878,3.2684292e+07
-72.25992154775145,-96.2266190548994,9.412240321824545,2.8347938e+07
-144.40895210592961,52.81216113953593,46.449227061901226,9.864013e+06
-108.002468523923,-83.53487614522163,43.60080967672308,5.2363355e+06
110.20132751363894,-97.73001372976373,27.57960977069903,1.6839162e+07
-70.11502068431483,89.56407351589638,15.353844763626412,5.362568e+07
-153.89626955911586,-108.01992436872038,-1.453778236151889,4.138414e+07
138.67072701598562,40.239632461302676,4.411387830876944,7.9358995e+06
-48.84830135294456,-138.7571547890721,-3.740927388605217,7.035711e+07
-123.02240205348399,-43.042829419483354,-4.36930685523046,2.1720628e+07
155.84011103692518,53.8975812125567,9.62023093088627,2.9885986e+07
151.30648664616064,9.611465154086801,44.13808897832738,7.4365685e+06
110.53501241642607,-56.92616484179234,-0.5319872659239593,7.4711365e+06
-116.8377803359957,-19.59309403175351,7.021442693771846,4.6803205e+06
31.358585484713615,175.77967864493246,21.31757439090494,2.6598378e+07
-19.41534449851244,24.312391903494273,18.033826200188663,2.1549582e+08
-110.22552527999034,-139.25491229357763,33.20030489207502,7.8596824e+07
52.621503516553844,77.33515799929233,12.54683646688332,4.0669624e+07
-205.1793935047288,-23.459934844656516,3.3963664129134283,3.4772016e+07
-122.83420445517416,-140.23095913296874,-2.4680328771311535,3.2492362e+07
-1.6492514252900037,184.46614734178434,39.26671121867733,4.315502e+07
51.105050081108345,153.3569509106395,45.01048306127591,357135.62
107.94702983646903,-23.844346335491622,34.28570992806414,2.0979786e+07
-90.38119175770304,-166.96465921787149,10.1342269618111,1.0231294e+07
-95.8741259497991,50.48914020616252,44.032470364623286,1.1133727e+07
156.39708672790073,94.8336794749419,23.06805547977458,3.1082246e+07
-36.73854337686163,147.3561659415737,-3.1773680632288044,2.6183654e+07
-170.65039494593196,-70.3165298563571,28.40662694174116,1.0682245e+07
89.56236528488017,-43.60051195338539,3.5188591251000148,1.3768115e+07
-83.17399301787819,-131.92118675872996,-3.818968135641924,1.4020833e+07
-206.29235495511426,-98.5863990737172,35.13761891301879,7.8688505e+06
-54.39396044097771,-136.05581154020842,46.63291703772376,1.2220168e+07
98.1727036556959,121.03114869126267,31.67385427632808,1.1299562e+07
122.99388888406799,38.67577539070538,42.7213664464526,2.1913452e+07
112.73709591474841,142.70413886231773,8.925331168335573,7.3726904e+07
-82.37434453302478,150.90800864862007,44.18077775807287,3.3786492e+07
114.66042394492268,140.33329470266403,0.6297071826545837,5.2641375e+06
-130.01190513445042,-132.0562642603552,24.071262888963936,3.1435134e+07
-32.702910288435646,134.04429868478383,41.596830486039885,8.913256e+07
-133.67757637579234,-12.980624193089369,-3.514351744796267,2.8170466e+07
-74.96384215587528,148.87609000749347,39.88124159512441,3.2398452e+07
188.08777059371522,4.1445473277639735,-4.900783419669582,2.2605126e+07
-90.98633522373127,-152.52843315957432,19.540914420282665,1.44366e+07
-20.967871042239864,96.50061468814886,26.9923544572471,3.3589064e+07
98.99553336801574,3.4925702273890806,7.233902701830047,9.55077e+06
94.15294489948184,130.92831173322338,14.333331113812342,4.067536e+07
-56.719731364216415,175.88033750601903,46.737315454082385,2.774309e+07
121.28776507321356,-21.09344126629449,20.07442931211606,1.5976438e+07
-60.42041804202674,-175.98403448359412,37.26741010682474,4.1689002e+06
183.31319872905362,-9.707016571720914,35.77596189578201,7.604493e+07
-52.00259778501106,-178.910366367724,15.184792220107429,1.4317289e+07
165.86576894404993,6.906868502731356,7.16785465290042,7.1317295e+06
132.65388500268,-111.41780967968707,45.62971578596789,6.555497e+06
-180.59735294786685,-101.77938840427365,14.057238933505804,153912.53
86.20964233842653,-79.97498927771946,44.08640453262941,6.061267e+07
43.69780653412448,111.98982244647948,-3.306950798137723,5.696357e+07
101.20810889418232,-153.4437539333524,-3.3739474560934792,1.5971593e+07
-13.40338801569763,-98.57820283314902,40.84235116882006,8.864461e+06
20.6400176337595,100.75410066005077,23.090401705290628,1.1061547e+08
186.87645395951273,3.311568235474766,32.687291338779,1.1168428e+06
83.2443331851315,51.90598233397259,-4.814225584564743,1.4095599e+07
-33.22008171421538,190.4318360871722,3.662255224378553,4.5905325e+06
-92.91287591035972,72.59494019905179,17.938634102519565,3.8679476e+07
-154.31358249828122,-2.827539157806882,-1.370585190863523,2.328881e+07
5.9425126595880045,157.00207021038267,31.645575031758135,6.8469475e+06
124.06333644083622,49.94347569658578,-3.0636281715018754,1.8476252e+07
-133.5325928733363,101.29837437091419,29.33293977706348,3.2107172e+07
170.29896085306206,-91.04800505001923,15.411492926076537,1.6684282e+07
-6.645475480227134,-99.57798564375065,20.334537130711958,8.123342e+06
-125.79022396172569,-32.066356509330745,-4.126237551971728,1.7124834e+07
-56.31955394600041,-125.20968977030185,3.2818102726176583,8.9165224e+07
-110.13828106491646,37.220326918695406,-1.7426455138349048,6.403186e+06
8.614794548894537,150.84768784053443,43.10146685811698,8.1063295e+06
127.23423023088611,11.612109925104363,32.114073456436124,1.4185983e+07
95.9509535557529,144.84087288017042,23.496216772675687,5.174402e+07
-8.660951140828985,-153.8575161116136,22.868680537103756,7.950991e+06
129.51565704660993,-53.65585418651119,42.72098379905006,400518.75
15.831359113163757,-208.90538397244563,-1.991214020896276,1.4289632e+08
-132.70394130640614,120.00878363623929,26.255083161178987,5.968518e+07
-94.648576318752,71.61016207316777,29.948042076462045,7.025845e+06
-71.49747519064601,67.63268005844378,42.479792908182255,1.3452756e+07
-97.73313582547763,2.0727027036642482,-0.0067355693085788815,2.539888e+07
91.1607608788359,143.27429334857146,1.634187503451857,1.9132986e+07
33.72015736877805,-163.3902627326129,-1.5764866104946855,266307.8
-83.93722995020875,28.30218621872916,33.783515107177806,1.059328e+08
-145.6979350357816,66.33013713398987,1.3428286346720082,1.416883e+07
-81.00658122015733,27.683552082971858,41.436581623270044,1.2281685e+08
81.75654614868483,-150.79127010134545,46.677748709219884,2.5082202e+07
-123.9956682598293,131.80842054037828,43.60441269369892,1.0554103e+07
-139.99734708848368,-107.09567736037127,21.449561016204946,1.8972016e+07
-124.17627751655023,50.88113909093414,-3.3254142214589733,2.1459538e+07
23.204256977649095,99.00035017961414,22.032848934453845,4.7603056e+07
114.00925628745267,-68.8257631714707,23.171402854575334,3.1938756e+07
84.55827139679815,-60.311088759464184,3.1016712374781825,5.775596e+07
86.93169920862726,115.26909163417258,-4.896428414225897,1.4250184e+07
-72.9849365137303,-74.33418086239942,34.69182803336605,1.5731855e+07
-160.66645094313813,13.700247444959729,19.796528008934644,1.5158769e+07
76.18872695370578,-175.08260297438207,17.739512096511966,5.859194e+06
113.8830151014696,-86.98518357252337,-2.614831848134124,3.8033378e+06
143.53464745481125,76.51124523014505,43.71740540263511,4.8520215e+06
-96.84770631265333,-121.0922277509364,43.039684072994646,7.0911336e+07
-11.76426261482726,95.09566663199485,17.71110340065736,3.0918754e+07
134.55799509678872,10.930822456859886,-2.011864044883694,2.0175908e+07
105.29595590994359,-38.265875999527566,13.471008526622711,1.6053159e+07
184.15996921312234,11.501968322536896,25.794773730986204,1.8172028e+07
101.39270730197381,38.000874414115884,45.25986568062185,1.7482612e+07
-148.97746542306604,81.37594170388417,-4.298691472340511,3.1202232e+07
29.9573126794283,-172.76077766117982,-1.0332440034385333,90146.57
-137.82722416757528,26.152583450548263,-1.6095067256084357,1.2613148e+07
-112.9704166126852,123.89956754013133,-0.060588285892854365,5.3687652e+07
-100.06716732665572,30.503932404727493,30.153685289147965,3.5023176e+07
174.61677745613423,-37.4760656065082,20.20778059014245,517002.66
60.55647198342655,147.97339296230763,19.565567992451328,1.4613146e+07
-122.00259769977325,-95.13873904634391,43.98327007451518,1.8015861e+06
-113.10624483194557,-33.39474209068652,44.34144308336744,8.697732e+07
77.65043632459134,-132.88070759265725,30.76405180347279,1.7123006e+07
-130.52611289975508,121.2175618490237,27.593811217866282,2.344091e+07
91.98642440978455,-153.1505592085143,47.06688540973549,4.427221e+06
-119.95469638371894,141.2115358413056,-1.5988361544538376,4.680572e+07
-150.6835883805477,8.221981302988524,36.387652067125536,2.5036278e+07
-100.01538210040223,102.78993045247813,-0.6459618444104951,2.1333768e+07
66.90618286617257,-148.6508075390597,46.818831223492914,1.081018e+07
81.61425781643732,87.07387751000152,12.636693987608748,4.467397e+07
30.187128069892907,133.99954966013183,14.476259148227538,2.653704e+07
-86.20133976217491,-123.634144814017,43.550220596242795,2.2913786e+08
-94.09074111050444,-63.86601772857762,-0.5312435268299396,1.352704e+07
-46.88541618599879,174.79735916625322,28.94402999976289,4.0877696e+07
39.638679105469095,154.25176968018116,-0.972386367965794,81680.13
120.73214478408852,80.00498288038523,41.25359821162961,4.0201536e+07
140.20426251960203,18.098010110839823,45.38938096271515,1.5395768e+07
-94.2215749906936,-7.226037447521662,46.224376231889494,6.3577604e+07
108.6145555787727,-26.991186569913737,32.69129988170704,4.1164184e+07
-21.31920529307672,-90.15851727153851,10.568567982029448,2.2811218e+07
54.520575124511254,166.57478764892903,-2.6565767829896183,2.818212e+07
105.6674693205726,-136.6110692177812,8.818369019114524,2.1616418e+07
-20.8141382004018,185.4148132611303,20.407923719673843,2.5300408e+07
-96.90680335957077,-116.84341941495225,9.546808349405593,3.8186964e+07
110.54979380067522,-116.9051641334754,45.50418366694442,1.0347822e+08
118.68442438869397,-7.641824393590667,-0.47575621379103783,1.511347e+07
-171.47753928368834,44.76043668330698,20.474461331229882,1.3479785e+07
-116.44079023019499,-31.28737007033709,46.6127852032149,9.191393e+07
-4.810471161553011,-115.96566726970096,47.49419505420501,2.518471e+06
130.73531544048552,84.48706723194977,-3.2716326359606587,8.3374785e+06
129.6087770708349,-73.69530799840129,45.94168323904298,1.4181737e+07
74.5074112394613,-86.52834804656865,-2.297512033366256,8.895385e+07
130.03860358870008,-66.68949851121852,9.628540145576805,3.453053e+07
159.9129661074835,79.03546333526731,-0.8420547438659458,2.2354088e+07
33.48505559962618,-86.1062048301325,1.9635076081425549,1.2745974e+07
-16.732135263107182,101.26633323533633,28.66798200634974,2.807246e+08
82.84180014396946,-51.560519295755284,-2.148087241883342,5.5795996e+07
-167.21505139200139,63.37015347567899,-0.8496178089324999,1.2095373e+07
18.06597477445885,88.20178765966733,6.733684512228926,4.3846732e+07
101.01548294592527,145.75928053587887,25.337009767974305,1.4898539e+07
166.03155385676268,57.47609435610735,32.26053738819553,9.10251e+06
-151.61477722503716,92.38457765778998,7.658413668422785,3.228846e+07
-93.9059788647976,-178.27935160389913,11.95947440643921,2.6697198e+07
-97.17338420898167,152.50765583224205,25.16285471403178,1.9050136e+07
188.90455591944465,-34.253701584011054,14.654585127057334,3.5409708e+06
68.05200776244425,75.70109806025522,8.781182392954651,2.4684672e+07
-34.337009809295466,34.93799546709059,-1.3705365625069073,1.798233e+08
-46.4760635138133,-156.67167566756478,25.41706747315845,7.6647705e+06
-125.94891052406858,113.18405524846719,-1.25385381150226,4.7323335e+06
142.68215113759044,40.18603406140173,45.6764872975447,3.1394774e+07
-142.8349959495248,90.90766322852471,-3.4765064743991925,7.847585e+07
103.4700767633015,-115.80804597033008,-0.7675821886827778,3.3581708e+07
-179.88713617681046,-29.336649346081515,7.137498200059447,2.195651e+06
-88.59576875669288,69.97717910359654,-4.82811527909641,2.4042972e+07
-52.565735416879335,-164.81962830956098,-2.264574403623653,1.8821604e+07
108.41858676383004,53.73896152743231,33.51788800459163,8.088059e+06
98.6124748918624,-42.6369770048253,15.100766529004392,3.340557e+07
169.00254391864394,61.38958663442094,28.921859224985816,579872.7
-176.87045516769064,60.298585189445475,-4.178650910195631,851121.5
-96.62283249993008,152.60978303444392,8.201808707941964,1.1289451e+08
-88.69967755949202,159.02385935298162,5.614356205144052,3.665854e+07
96.52111436593759,44.47142364427134,15.727186581319359,9.011507e+06
-82.98868408954834,-85.73749578119055,28.738450390821292,1.1682789e+07
-25.533435184333,173.71700010160794,25.14016078010766,3.9168292e+07
111.75163923657385,84.52779660159331,-1.5630722814494762,3.2979406e+07
197.98155225117944,51.75735632150469,5.8084710626351495,1.6848298e+07
-52.45235629566008,-107.50988815921889,37.8215853662034,4.4763164e+07
53.139457012306195,-172.93107682757446,9.63965515348447,8.901533e+06
53.50745284574339,130.93514100615494,24.83447460682797,3.5888672e+06
-155.10780570596933,59.406570429035924,14.647306064901912,3.687235e+07
66.88855604951448,-81.37487921639178,47.19152006818265,2.100961e+07
-122.26928438897637,127.18973349378479,28.84495697904059,5.948844e+07
148.5435933647404,-48.447251074873094,47.408107111891525,6.909145e+07
-49.18735792227491,173.65004303497875,45.37739406760038,3.4814536e+07
-174.11575533770733,-45.47209935382773,5.711830234005651,2.197292e+07
-93.3200517889628,-64.483265670744,-1.1841196900475945,3.499464e+07
-41.487781271006384,93.74922625578677,-1.3405989425481946,1.8157816e+07
63.046777120560364,86.02099928931261,14.916854512637371,6.30578e+07
53.2627960354132,172.66944052650945,-2.5825667509008,3.3422864e+07
92.3259964686568,158.28169381028738,44.96266116756577,2.5255718e+07
-43.01063656993708,133.19524845628337,20.978902986312594,7.951336e+07
-178.91784058795025,-33.35638852989223,8.273679441092138,565340.8
70.15224959641046,-99.90826397664533,20.220513925713448,7.6485544e+07
100.66092070705497,159.64319595293966,15.847150448328566,2.8538102e+07
-88.19518514910428,83.9134913801089,15.107598037690316,8.896959e+07
-151.79482714847103,47.95050334151074,22.685665124984027,6.0582628e+07
95.4300705571323,-15.948318136147492,46.6337855353169,1.8415302e+08
158.38785106508647,51.45269903401993,11.647487687547738,2.8586852e+06
62.52772981746932,-164.09234385408286,42.61483813161557,2.036847e+07
179.23405057629384,-26.931139400164994,25.99242822166544,1.6042593e+07
60.02127681321815,108.67791259996085,43.71907229820775,9.675577e+06
-72.88237926818684,-80.382759870835,20.1785474075435,1.6326664e+07
175.91962915488187,-52.31280527609351,4.827204005730307,5.360724e+06
142.02130593145006,96.6834782310986,-4.138438798602016,3.2596166e+07
-69.9690745317979,-102.53475388535703,-2.963018606373808,2.2600728e+07
148.5101139858212,-52.210173657455044,-3.5821152803540484,1.2393071e+07
75.84078056663225,-66.24628304825515,30.90045160303341,1.7711718e+07
-21.74538529792173,168.18401020851957,43.30119566194537,2.0601184e+07
135.1252429428191,42.96873589866408,-3.882285211875817,2.288652e+07
89.53891202030724,-137.92844002568486,26.06521863112023,2.5335638e+07
-115.12764435203368,-110.34435171406327,34.49100932601655,4.171085e+06
-42.98422519911216,-99.70767714113173,21.160809453879356,1.990692e+07
60.716593197394104,76.48341104595215,16.088794892983778,1.9069408e+07
171.06469515435634,-56.044437493512135,23.57077420900172,1.261793e+07
79.77333911193716,-104.42426177382833,-0.7664938672080845,3.8530556e+07
-134.13096812772847,147.07981215372854,25.646552802861812,4.1603024e+07
6.9730997115257765,70.41265623148007,36.76084957748178,2.8172826e+08
-119.54015176693792,-145.1283260594344,37.194318561323406,3.739954e+07
121.48979107044414,37.820175405258055,16.572239847525736,1.9023138e+07
-185.51584649584964,-61.528506780523514,26.08847744694605,9.297895e+06
-64.38929879522101,127.41187473481142,-0.07464257628262239,5.1885104e+07
106.84882423672258,-4.962781949641624,-0.4280004027315867,1.7154876e+07
179.06800416355543,31.419576037462008,15.985392451671135,4.1059136e+07
80.25975388105377,-27.987047411113338,15.274442357309034,2.7908726e+07
38.11038887648249,131.70808620571194,-0.020178388929447344,5.268867e+06
104.02533033008746,116.63431361417253,45.691409182018695,5.570476e+07
-41.98871646138676,88.30554528536254,38.883239236464,9.6036616e+07
47.39642718537959,174.33732882536088,25.437983024004023,1.16280104e+08
-99.832648750232,-8.904365108266433,31.063354009186362,3.8034052e+07
-191.99817393298255,34.07606514945428,32.475959977782644,187470.14
-51.539169056046944,186.24846909945762,13.29576434630874,3.2366682e+07
-151.57161531884336,-105.70854584444102,31.99277517605107,929206.4
-125.06815661489371,62.738276046677356,47.395926877984834,3.230268e+07
-182.36733154091218,24.59186938686358,19.008957056334335,3.2920285e+06
-36.85705949219371,154.2387148505864,46.99417058167566,1.6118216e+08
-89.26719040944977,48.04452171441801,21.9996582886288,1.7436598e+06
-7.316061105812054,93.49100798827362,13.355319374157386,1.9299107e+08
-68.32287549876838,-170.4762612510453,13.388859181835002,2.1157878e+06
-126.73065216451546,-113.12516890130757,45.95835941027843,1.6907484e+07
-60.65991396261677,97.35843949498991,22.34218768935376,2.7840804e+07
-75.63774609044185,62.96703895556885,37.04909137037437,1.1104061e+07
10.74089328077116,-135.23359369169327,25.809455047506326,1.8130219e+08
67.6983172583864,-169.84965892858003,47.05641436046728,1.4153248e+07
-23.702468035235,-110.76517059685433,44.75084430223933,1.4724031e+07
-0.6442749794997837,-178.22642567113616,19.336377701692587,216996.84
173.62874456318156,24.469646288936303,10.664843036543473,2.51151e+07
-179.18057274358338,3.2555000894919885,-4.058841109676445,2.4564988e+06
-46.90205497663837,160.36861295157883,44.35840011265874,1.1606318e+07
-40.66178775252962,-152.2480328480893,19.34262371089951,2.3123622e+07
28.831621789633743,-185.3789972427617,35.20520489666013,56158.367
-14.13946580694136,144.04377094588693,-4.452709692664605,4.894736e+06
24.62744874454853,-172.1219659411408,26.192075805644897,1.707934e+07
-3.9539542683883155,-187.295276634362,5.508510400561313,2.5730722e+06
-154.7182006040718,91.78916097728319,14.238599668343788,1.3655097e+07
-56.29714975338794,-25.11688905101019,24.19248203023464,9.061826e+07
163.00300794955098,-76.8553403737287,31.892023648928223,6.2109175e+06
-97.49354534138294,33.05615230504358,45.09561969991227,9.255718e+07
-132.47482832903881,-1.835495460842509,43.3377245873267,2.2186298e+07
175.5313910430487,-60.55637891004528,17.008162616869097,9.166201e+06
101.3099904611604,-45.420558073461194,24.031432882217615,5.530157e+07
-39.10282010223912,-84.29452495470093,-0.38123488206025336,5.9240372e+07
51.06215083037341,-156.78695704506492,-2.152644477747483,1.057606e+06
-108.56780404445624,151.90305158982,12.231786811826794,4.673834e+06
173.89506632365323,56.048501362918046,28.471995803934753,2.2240968e+07
106.36824869026191,151.33693873434277,6.226248844275965,1.7658032e+07
56.71998901312202,-118.35461249433375,44.84645068261642,3.4245652e+07
-65.51801711955966,-92.64745364215476,44.13443645869707,2.8856266e+07
-89.43741252625327,139.05654723930968,46.28960783961283,4.990136e+07
142.60623217683906,-117.79490787009598,45.042774585706276,3.2675465e+06
-4.613898156926922,179.93687631949086,-1.1240187799914318,2.2313652e+07
-124.93284727188943,61.04558894154843,-1.393608928249975,6.059662e+06
-46.74399616523746,176.7320063128097,36.54607196433171,1.8532284e+07
175.30542463635697,43.32809782715344,28.084560762466516,1.3218474e+07
-111.04890717045417,67.05971018246157,46.174156168575664,1.125094e+07
-139.12889781021977,122.79337767327672,3.328236605316661,358111.0
-85.28621006208886,-59.296555765489245,12.472346396089169,1.8566438e+07
-11.599380721731563,-100.73256887494017,46.46414611697078,1.5071752e+07
-117.7405754709754,-90.733164897148,-2.4424326207195852,1.5528052e+07
-43.998738368474505,63.20649352363728,0.7815960379105977,8.472594e+07
45.36816823616192,177.7336514011903,36.9637648098385,1.220698e+07
-19.941673749187032,83.59806251549412,18.32456268082855,1.2273747e+08
109.32673694698019,106.33254744100515,-1.202541123950522,6.4673196e+07
-85.10063637717249,-152.80422586664275,19.67727376902057,9.106037e+07
-8.380913539168972,-184.40037465398947,5.370078210909146,6.1110665e+06
3.4017801653514255,-126.44042696347927,42.758795799829045,3.967669e+07
-156.29945940201483,8.01955903570726,47.09109975003793,1.9863018e+07
-45.37786479596198,-171.59600344614398,-4.152168633367818,163742.14
155.72296797136187,62.03896802815393,45.793221979822704,1.3402006e+07
-53.958948549602724,146.7078717917612,43.82464266696718,1.03121304e+08
-120.67804589573858,-124.01641343632134,42.23346331307885,5.4080315e+06
-135.4451761004976,119.41298762409542,-1.4654416873765088,3.8936025e+06
185.24352790265618,23.50193541120572,40.62748276565788,9.69433e+06
85.36165095519607,-72.10909803012032,41.75720342749684,4.271686e+07
-84.2270479602264,39.07102260740743,6.3326584802763595,6.580459e+07
104.50451474555467,-116.11086174237714,45.66494784601532,1.4280509e+07
7.506110320878491,-114.42229218469052,34.22904452944173,2.88067e+06
-143.00457859395271,-86.4505339146539,1.0192113835729488,2.8667152e+06
-66.14596469807756,171.6668983410209,44.100635201173965,5.2348644e+07
105.42138720319929,119.64753097840736,-0.1325410327058325,2.924001e+07
94.25213839626468,22.599728647305653,13.385720949663188,3.7233484e+07
-19.047593024331405,203.29784286418135,23.825104570407454,2.3855472e+07
67.54190212582165,151.17847556599264,46.09717363612412,6.25045e+07
-67.23130898187782,70.63653988287177,21.3344283640989,7.47356e+07
122.12351361533047,48.10484845616662,-3.505620035549649,1.9055172e+07
144.20497522186946,77.63580554969968,-3.422644869090281,1.9029346e+07
-147.4001306929483,8.54198561162238,-2.041998010262571,2.311896e+07
140.32074840338026,-182.49688984130282,41.89133062370931,5.3277196e+07
19.64662797800608,178.1495230237257,20.887612554991815,2.209159e+07
55.82304806611455,165.38486097174228,9.61126225112306,1.27102024e+08
-201.93563732673815,30.810056979241182,34.37399625198049,1.0739161e+06
-67.0949681073873,-82.1536414047138,21.222806956775944,2.0439228e+07
132.45781664927495,-121.03517334206171,0.2628465108185072,1.0039932e+07
-60.09465932385356,-170.37204471135337,14.373731110408059,1.1577521e+06
-126.06317574866569,111.66723113180927,41.18782746821336,1.4886024e+07
32.38835882128714,93.274741704885,-3.4505336164955405,2.864189e+07
-125.44299676904252,121.60728952094166,12.410986691953728,8.865789e+06
173.49660750634723,12.431787721607378,29.66286051143169,1.7662804e+07
-141.64496187342678,42.08909685656391,46.127975283725014,3.9928424e+07
12.072742771471354,-103.64344695814812,-1.4238644366264968,5.5862355e+06
81.99354437041535,75.85714996746663,16.262162382251365,4.9313416e+07
91.74949335618186,-44.4133460124566,37.781443027334504,7.4494115e+06
85.0461047141539,-165.24863385589575,-0.248469095729404,2.4305248e+07
152.18086269334543,142.36657207867012,36.69314271816651,5.7301284e+07
-91.8260934890915,34.50726111208209,29.667562443103144,8.649526e+06
8.717978177108108,154.12608698532807,-0.3488569765673306,7.7806335e+06
-10.868490406411325,112.17428544966418,42.59162168162844,4.0546184e+07
96.87056089436516,62.95364568332377,14.668666004958421,4.0392938e+06
114.84940497202666,-63.578041453065396,26.330613356180034,2.7685696e+07
124.83236597371638,54.34486670041417,-2.7364922080853584,1.0989755e+07
-60.841463174622845,-143.30330072411624,17.258420749337,1.2992143e+07
201.86138556815962,8.226395711249353,-0.8646570814683505,7.7288595e+06
-44.66589551135513,108.58335924176072,44.056660656977265,6.0995108e+07
2.300715212473307,-146.4187731688039,42.614659529144994,6.0914805e+06
123.46251504420275,0.5254998452629991,-2.6908874133486793,2.98622e+07
56.03643301227095,-102.19403830788303,33.98140487381763,1.9138376e+07
-6.5346800545033545,-48.68242835819669,38.835391335459825,3.3222116e+07
-104.29811860712597,-158.47652668951375,43.956099772659144,2.763645e+08
6.010341666833682,186.4522035500321,42.572394315850346,1.3664668e+06
146.97050353800836,-66.94565224585403,44.406697049031024,1.4869259e+06
-58.595202628155135,109.85763549101517,42.80696947459337,7.589153e+07
99.81340084427023,-157.9032659575281,36.495821960887575,3.0855736e+07
-1.5539552027985337,97.2593434053133,3.3435099450048558,4.614508e+07
70.60981554773758,-71.27572873747397,17.17301487428066,3.4398468e+07
156.94922364772953,-50.13825757543992,4.82472581084634,2.454688e+06
-110.7153401441274,-79.9797304932444,44.04331871810328,1.8258846e+07
73.76124892171919,-175.05034452725076,3.007446225348497,2.0336342e+07
-128.47422200349808,-75.9512648504288,-4.781470170571141,3.0708092e+07
142.88082536698664,-57.965429302118054,-1.8578684433565624,1.7746442e+07
107.40863474605311,109.03487942053891,33.12867284066513,3.0581712e+07
-106.65404813998113,8.254352486923523,45.89990878707765,3.9305108e+07
-175.7853842932759,20.347912683387534,6.718760113194094,4.047907e+07
130.1233556840371,48.656076498106074,-0.8746497029243034,3.1234538e+07
-151.31051811168865,84.69304499785108,19.658177032876296,3.464311e+06
-119.87137664060627,-148.24722702022535,24.292857654165097,5.306794e+07
160.1497321254953,-78.53670570512628,42.871645784572365,2.2930002e+07
14.361677366093204,-112.30122979808405,44.510354819562224,7.4339384e+07
-16.619236616046123,201.55147628353092,-0.9056631273860773,583533.56
144.31150009404683,-118.98958917680037,-4.802423644653751,151953.03
-57.383769400429884,173.19164956905377,31.369084170644513,3.9341164e+07
-23.337697401889386,85.07071701765403,18.670473644442037,1.7133124e+07
-156.9315968494568,-90.40866004839103,30.6663504312489,3.6697918e+06
-71.88832009082557,-165.87814763474822,-1.2966328058989305,1.4064085e+08
60.45533319677952,-147.13634424565814,34.29791748107242,6.3958785e+06
47.14444374114157,35.962200469325126,-2.2219805585794012,2.6636322e+07
-73.96084689322669,78.26901315376102,35.51979190509813,7.695769e+07
-114.73012841755174,7.576573657364861,-4.349031793460053,2.5190554e+07
-157.00519018034916,-40.812449977770285,32.3672701221845,3.2602775e+06
82.86418602264843,107.75249459216639,4.267812448789337,6.6248364e+07
15.665358459375994,-149.4044766844624,8.764506660867701,7.1618005e+06
79.78485452527678,164.80333946193633,-1.1638817289508054,9.841153e+06
62.025637769662296,81.06640524501307,25.710950404762063,7.584364e+07
-54.78381042152088,148.9914023417408,34.28619691302508,5.4726416e+07
93.96686651116659,-167.60925744066256,32.0549085222067,427315.38
155.4023215121971,-64.60387311422213,4.918673651129888,2.1397346e+07
31.148507736490416,157.21050830071852,-0.7035614911512393,551444.1
-96.49497470900326,-75.25618766594644,19.068390272789465,2.3194206e+07
162.9645963133499,-21.43773687232371,30.565234300053326,1.4416766e+07
51.443508135132674,175.27708907930605,6.111807713676246,308251.03
-94.11003949204097,-141.86068598212455,19.872219335179093,1.3431642e+07
164.10291682959985,-77.73698453131081,47.32948235499027,1.5558817e+07
1.728912370318909,-142.27237092625893,44.92897872831857,4.6098024e+07
44.4385386496366,-91.76150996027225,1.0217825079282061,6.247834e+07
-25.257462483067428,174.3315334369919,11.462304473534015,4.2327136e+07
-118.11206753502938,150.20546840319486,32.06274449495746,2.9378986e+07
60.89301673645713,39.677353202723594,-1.125665097972382,3.4939504e+07
-54.08895660477057,165.72556403414825,-1.0212036059894354,1.0566981e+07
77.58563915645385,160.76829756885735,23.025577190979423,2.5797208e+07
66.75218906372828,-160.95291213331046,25.998847562325157,7.1084655e+06
-26.713042550518622,182.73804582610796,32.22256293526437,7.157859e+07
-127.29780511502797,-132.19921384177394,25.817797297351753,3.6698936e+07
70.50735352325557,167.9318259979368,45.35489695968908,1.1249386e+07
-29.586102713649467,-168.436057626481,30.82235835239323,224734.97
187.66242485289064,24.793278923496274,17.2040933665769,5.2971305e+06
-83.97086418595151,79.4142073460759,42.93295000945022,2.9292284e+07
-61.111106598245925,-111.0316994847224,-4.750703183868242,2.3292218e+07
112.56036353269019,27.228704732128733,23.389703524870587,5.865232e+07
-99.44142231654801,-2.5134791267740297,4.774309835356705,2.1095578e+07
-134.20658760677867,93.87809422648701,-4.969264990101743,1.326099e+07
148.54710868616297,44.60417814919805,-3.8398055189808273,1.703222e+07
-87.40127071035377,46.724648098649084,46.32509103030968,5.878135e+07
-30.358444235396803,85.54877245593434,16.25717820198577,6.747731e+07
113.01518090261987,-53.16418392894468,46.46930661203169,1.5537819e+06
-39.01309716626906,70.48249430931781,11.038926802329698,5.353646e+07
112.27908369341765,110.7930616448786,43.57754952923424,1.1260954e+07
-143.1920079486022,10.049943832331905,8.877728688319566,1.7709352e+07
-127.84191381786634,148.9014482957465,29.67385964311005,6.239521e+07
11.523580424227617,-148.97023562469445,43.69755213155379,9.184067e+06
2.9652896077736273,158.93096279326357,-1.706645308788937,1.8898004e+07
-56.20334907167242,173.43751211221252,30.31466260953173,4.4557532e+07
-13.318746544997907,158.8533793064238,16.354393473017282,2.2619586e+07
-128.24517134082873,123.7510261537567,35.7584249534924,1.9800002e+07
-92.7275386918224,-45.99392246262613,-4.384632759422807,7.292784e+07
25.0127508388492,-120.09544977331404,45.997958724460965,9.029102e+06
-52.94917611829743,-98.7487304324091,24.037561176684363,3.8591324e+07
-22.592884872485257,160.25603053768583,-3.0291689261129418,5.346262e+06
-145.324452297148,-96.8117653804754,44.87870574582206,736708.3
196.99329898170424,31.127243633205552,20.28181890329984,5.691418e+06
-58.31792877991205,-170.2777145729723,38.90631658926501,3.4183202e+06
45.57303820875836,125.04760687462141,46.15287951799865,1.4877694e+07
-100.5556619320481,-8.05658543713389,14.227084055601871,1.8812892e+07
-136.97953313377928,2.018504378402696,-4.2489229837691145,1.2545867e+07
-33.4931463762415,187.82604256250102,10.86081991752598,1.020234e+07
-104.90078406821772,58.60866478409099,-4.291444014563423,1.8853384e+07
-108.66003764688848,68.4787713358233,-4.651952064634431,6.0908956e+07
34.39436550704394,175.1895336749854,19.588528873954186,2.359405e+07
-6.206582786559693,-190.62222794912742,31.201068201900092,44464.64
-43.81915968417272,-171.12702449520307,44.853506208775144,1.0081813e+07
101.50806662447707,-86.66868238311164,45.1592614445031,2.1052612e+07
95.44569176500187,123.57707442587798,2.021599399832409,2.7199266e+07
85.9967410363484,-88.2634791778986,46.85762914900444,4.3848724e+07
92.31171601950831,38.6760273002173,22.212195970348795,1.6349484e+07
109.96878583895966,18.238033870208568,30.06732571742711,5.9831555e+06
-92.36609310733702,-70.86317774821225,-1.8004001242347951,3.495127e+07
-143.3306902661755,-107.84303456432721,20.461478567085827,1.2736948e+07
-138.1322971046034,-32.11051214637783,21.66266082983411,4.2556892e+07
-151.3249920099107,48.62335695987497,6.744673256795943,1.2082933e+07
-71.36845578747469,-77.28224793576715,5.97877613325667,4.302036e+07
67.34224798852694,-68.56175055243261,19.318492380392467,4.8144772e+07
4.714959653670888,-195.2926424867147,-0.32022156759279685,6.6280605e+06
104.30909871812133,-100.58369156485222,13.991709076669306,1.4787432e+07
90.78690993768464,-102.02171605250354,-3.7048163289005265,8.691479e+07
-102.33758367332598,97.95270344954844,26.20626225906268,1.9760876e+07
83.72871318734457,-160.21296810373784,-2.013666294403629,2.504101e+07
-102.29182874119252,-86.99690268940432,42.93759109212176,1.3785855e+07
31.74130851257101,-186.74112380761304,42.66629333028818,3711.6829
147.7941275992555,108.38790794720921,22.620880433006494,1.03579e+07
-180.31462231065888,90.60246222544981,16.9480597787903,1.5694195e+07
-77.20757997907978,-144.67360026938061,-1.9110861263551113,3.399611e+06
-78.41564446317224,100.96760306086668,44.34597234144262,5.8508828e+07
-165.24278609241546,0.25002742572931425,18.741048263703473,1.4163152e+07
-150.3452435387167,7.619602628156031,-0.07525163022974013,2.088203e+07
-150.40712760032596,106.2155425611403,37.482855309476946,6.0976165e+06
120.23152298184505,-14.799037538902837,44.078527899529675,4.5762425e+06
51.0676859116312,-94.389234517441,36.0877899926718,2.862891e+07
-107.1756223545609,139.97281590988808,34.22890418570844,6.477523e+07
-8.416984481969251,-87.4191330284124,6.441190165277591,4.548342e+07
165.68468471240232,7.371048268002625,44.04348362664309,4.0859722e+06
96.80456705879396,152.90240579499954,16.314516300476843,2.190536e+07
-169.6630754384929,-24.81976139911879,2.7193584768987646,2.5262104e+07
15.043512696640818,-152.56491982744103,44.89667290042102,1.25946984e+08
-107.18234632228244,-7.123192025955575,12.0203699604971,2.7227964e+07
94.23176086451974,-118.5549061912431,21.23481356840325,3.5267812e+07
-121.93547572976145,-122.22210872713647,22.48717725884561,3.3690304e+07
62.07048571398826,57.03675503490581,20.407773892310928,4.6813428e+07
111.83118756913507,-92.45362775460298,-1.3976335730525173,3.7490585e+06
-149.89536857154383,-96.36686611251109,19.595605006069015,2.7540102e+07
160.30636860374432,6.281963469179431,5.349889203373403,5.703201e+06
87.83673071021525,-114.5122375535564,-3.3522141034180937,2.9201976e+07
79.04447947674515,-80.39437512488627,22.692578930164277,1.113191e+07
95.0016013427084,-79.40464883887338,42.56633438871211,1.7149296e+07
-58.184597522125216,151.38268787874716,43.13802097321628,4.693595e+07
135.5972963384807,133.11935873761144,30.502588874148103,3.946344e+07
-60.9032466156082,109.36951268172226,35.41254438447883,2.0706144e+07
29.011022140860348,186.80418384428913,-3.675642195812063,5.877822e+07
58.359088087728594,78.0765668563327,29.135149633911105,1.7297728e+07
17.232825349359103,175.45824329035645,41.63897559600816,887408.3
-74.46384355902183,-206.23144888342753,40.63689910037443,4.7482725e+06
39.330464591934316,186.62308092906574,34.73845004627561,3.9070256e+07
173.19427901144104,108.39980713809916,20.5475841297416,2.6702335e+06
-133.37493174113195,86.10073427476505,45.37773087804761,1.6379444e+06
-10.399662083941337,-182.78684415510216,25.533851813225414,4.5582605e+06
138.47530017749676,63.54874391319879,45.32621095783297,6.0543875e+06
108.74909881045221,-70.29605836067549,-1.447101531561764,2.9075276e+07
-72.35064894631785,147.7205108536785,25.990555438702422,4.494874e+07
-53.23860817380344,152.17247273127464,12.743492979632371,4.213433e+07
179.8541218518351,-39.230281066110024,2.4660087302626224,4.8306095e+06
122.0063740318895,136.20868042194894,9.09062979368157,7.821713e+07
111.87706151993541,21.156598804101293,19.477290120096207,2.5780746e+07
64.04463196091109,124.76989951720617,43.115951316233435,6.7681215e+06
-170.41482377027373,-98.58945353596974,13.321242938860014,298729.62
-72.57701981538315,-145.43771855330266,-0.03167467791860279,2.2941515e+06
-137.4714526742427,-116.59217689384135,16.077647950230002,2.60961e+07
166.15383407730172,79.96240004559348,10.183060206237474,1.1705227e+07
-58.83751871367198,-74.68352952103209,22.232979740575985,5.0433076e+07
31.025160034547383,-164.69990247713017,43.54866840327865,825784.1
10.559956276364659,-213.93807860725613,-2.4513203065805143,1.042381e+07
-179.9351078281323,7.906856047542647,25.207704767121662,5.8847364e+07
66.02821473994703,-163.60606723642465,18.315374788403698,1.2611532e+06
-135.16451109775093,-115.72394847606078,-4.9417929317500136,1.4409552e+07
-29.357806282060295,92.23713824477471,15.74288768394603,2.8802518e+07
-67.50332359906295,38.64887148628574,23.215894363976147,3.0033496e+07
-150.39984077965738,-27.868895991547845,40.68011236466395,2.8361755e+06
99.72917131968569,146.95319800029137,40.95225468879443,1.8548022e+07
43.631508236283366,12.460180319066012,19.51048151925375,1.6162157e+08
149.20772205217037,-44.71058235573622,46.07818171195577,9.757608e+07
163.53677438070417,36.47742279195572,13.666205420907438,2.5024244e+07
-185.00234702834769,-46.31714906134292,25.422908828246385,3.9873035e+06
97.46521384060844,-101.08073453830389,43.93753636646554,4.685547e+07
-180.38503458485894,-33.41406656290266,-3.6414797646482233,1.5694766e+07
143.41760301905248,33.07979021954077,47.14578045897797,1.0150321e+07
116.35292653156358,121.70169349672983,-2.2163918375484064,2.6400958e+07
4.815420889670435,-180.97300126782764,7.997625013845184,1.1818398e+06
-22.38112801378921,118.31941077470793,43.68810311295663,1.4296003e+08
19.04959140118038,-159.84933898119016,29.315440317693316,7.213896e+06
109.95120872680144,-18.42617632142955,-2.171047442869871,4.778101e+07
-75.81920026114474,166.33990356310983,29.340076660812024,2.9009656e+07
205.7759022017638,-67.13731525427755,3.5343901673371736,165860.06
35.01888707886852,104.51849745279367,46.32823714739333,2.2391054e+07
-132.391768777744,-129.4176958905123,45.861412053439025,2.761723e+06
104.79493374604232,48.8486840216014,34.601518042320855,1.1096411e+07
161.78217072271946,24.289794967112783,45.68150342194321,8.844961e+06
167.0442516641425,-56.93619355380338,24.13545123039446,1.3464132e+07
-147.27002814813517,102.20190703703543,29.77862673743966,2.6677905e+06
-21.219031329485716,126.53357809534401,42.84623222648093,1.627317e+08
-45.63991710609332,-170.88646270417044,37.43164569861704,9.797539e+06
-99.67106422792028,68.86850306568857,28.949754780926867,6.9317215e+06
41.13528227230222,26.568363206100287,12.943415865665795,8.554181e+07
60.17807434802444,-171.2445415024052,31.517678576421638,5.381694e+06
-93.80501436437868,168.10613580394545,38.520932146388496,1.3951e+07
90.33074694847676,166.30987856061097,32.35343059502504,3.0593078e+07
-183.002883534163,3.1207136881779434,31.915128952771738,1.317394e+07
-5.020146397791223,-203.94270436046287,-2.2893273252597415,6.953808e+07
176.3301398103344,64.26191072092848,-4.058194585443788,3.8906876e+07
-40.32810283981959,81.0167516312481,22.559712544966953,6.2783476e+07
-53.037654594082966,140.23335087920952,42.3408914869217,5.1371364e+07
180.309422881842,-7.643949288954417,20.69169161114097,290553.97
145.44414069280356,114.12038958926195,24.078455888645916,2.1209838e+07
-105.51461230383833,13.070663989781792,23.121412204096256,1.7221232e+07
63.36657484325906,178.36843260097203,13.055295537251197,2.121042e+07
-120.59760177886834,47.91008476650245,43.97231663966417,1.5827874e+07
-149.0715410472617,-20.330827412886322,-0.29865243395734353,2.9957078e+07
8.202875873446544,-109.51983312123231,42.66280276923012,5.4214516e+07
160.05078624633126,-37.673489558766875,-4.240441119058924,2.8650098e+07
17.737035086459457,-200.32413625810827,38.638795626708415,2.7220858e+08
-103.56388544369175,-82.19798043834052,-2.3947052011400247,1.80626e+07
-0.16190795581962902,148.84264097435158,25.994089304436677,1.7795826e+07
90.31571513803812,-161.42645913014024,-4.897682915510074,2.5637654e+07
73.8657915003169,62.55858482269946,39.78492737325709,3.2592732e+07
-27.278191354133895,-78.38146388696421,12.968366271001884,3.8803016e+07
183.36325671190883,-39.95197757996698,38.72745126464896,2.9777326e+07
-89.02933963277826,67.42191148216943,37.419897925461946,2.9923688e+06
-105.25889404045637,9.825245870667544,-3.5488986135840737,1.5004028e+07
151.11871270777073,18.761688816136825,47.08228960967446,1.1799642e+07
-158.96686840718408,19.209689634806182,-4.932982036834461,1.4743368e+07
123.48997015317286,66.50931687051417,34.476653552210024,7.243242e+06
-45.959738689981776,92.02580274023973,44.54645104960923,5.697524e+07
95.85141869745291,-12.80027470337538,11.292858769501404,1.4934254e+07
93.37351821077101,-158.92400563464167,42.94507683702815,6.2209005e+06
203.93554846984205,10.47575428258773,-1.0138962820072983,9.147541e+06
110.04052095173449,-127.6401320922917,44.17618015431642,3.782816e+07
11.107853053964334,142.79868709823666,-3.899017744794005,1.8053714e+07
-49.54902374628128,179.38557732050657,5.945046475486089,6.379984e+07
43.13105111002392,191.80615582384576,5.4733707596479615,21203.742
-92.10613256870623,-40.31139489906633,5.863835615672803,3.8256556e+07
95.68944689306454,18.675160025597762,24.24132161637362,2.1691826e+07
-17.436801571587523,180.11066236910614,15.859933242373451,2.0343902e+07
-136.99544725891957,71.90420309212715,-1.0785890789643298,2.8979778e+06
-6.449508898727657,160.6634051616182,44.10809632116089,5.2773115e+06
-98.26298238985784,-108.56607362025099,-4.06451435556519,5.6085944e+07
151.72938766517717,83.15632496197435,6.234211350123813,2.1917492e+07
133.53458996181638,-94.32588245450209,37.326256345428746,919019.7
99.16189967368905,161.61405085046727,44.267100282058735,6.856071e+07
131.3363169412616,-72.03983693799503,-2.6323855298893166,1.8430362e+07
-33.69979854168898,92.09600172952793,16.750197344031534,4.8419304e+07
100.48315475524743,-156.0404905119179,36.31904675895594,2.0969596e+07
143.441147998931,93.67814877525763,-1.1823868669048072,1.4764777e+07
-17.59185588397733,98.80313910438542,-1.8655157404224179,6.739444e+07
-62.616138283362375,-173.13861224180218,8.208815878163287,244312.62
-98.24385603275543,10.202934678451044,-3.1632073299331034,3.0504768e+07
-21.580050022368994,-162.31939811950912,11.832310025987962,1.4805186e+07
-28.82481102372654,-136.46996672327714,-3.0551491316077106,472225.25
31.52777613022755,-74.25523931703222,20.292323608215895,2.241165e+07
-146.11620938399128,81.11746022600772,-3.2759777389112226,1.2378428e+07
-23.705996588136344,-58.19813793028678,15.334352590810045,2.3082424e+07
115.67297892232591,81.54167327418077,-3.2726356869101396,2.307606e+07
93.4266093595254,8.577284137554926,20.933627228577745,2.1165676e+07
49.38185811156768,83.35134395351042,38.11721310669391,4.737403e+07
-31.011325988395356,-185.73511454208938,31.62734374959505,5.9748575e+06
-7.758067086750373,117.19509079440991,2.9325055923526797,2.0928964e+07
26.998745681193725,-115.13391410629801,25.503009749742954,3.1771436e+07
-133.84847583927217,-16.55499593022094,-3.804308053993208,1.2510134e+07
98.65941880857287,89.81002849451534,-2.3365941797944627,4.172308e+07
-88.67288928000178,38.95247145632442,5.517872388514636,4.9987508e+07
-61.407536526717365,-179.14287593051654,43.37559301817338,8.111158e+06
-107.62714605275654,-201.70254988226375,36.56647748267592,5.1202565e+06
-172.3644090803497,79.68499897840923,14.47549827096951,1.6872702e+07
-105.69872624192381,144.15282001094062,26.56268032868701,8.77074e+06
-61.41348454887853,-149.5491991573664,17.58376780774443,1.0079143e+07
17.344116324855122,157.04288894021806,31.188031980488965,1.0457079e+07
-183.50700524694372,-31.448960420305298,12.684162795169481,288171.94
105.66613131599331,150.20673813378403,37.711933005171026,1.4123178e+07
-164.8029332255722,69.37851465340219,15.870564916088632,6.623351e+07
-91.75844786804102,-23.608738269635694,21.565105437056758,2.1345828e+07
110.18793251762287,-144.9497664521261,20.756013252659567,3.2926676e+07
-167.47790999012545,38.749583509459,-0.6065905853033042,2.35348e+07
20.107974606126817,-176.94847712198762,11.760347086636187,110353.695
9.443405887612187,95.6386035820081,9.723646110542019,2.1080882e+07
34.845528518892166,-126.95979254203941,-2.028190897972981,3.4463488e+06
11.264134196851984,-199.26297577590236,-4.27204766110998,1.8401496e+08
95.07400054539698,-2.359179665624964,32.18618984688543,1.032435e+07
92.25487768036544,46.99682260212586,27.350411662100434,1.5033126e+07
45.83404031210824,148.42911078186285,-0.07207076260698209,3.4835292e+07
-132.29946113456444,-110.33613370669751,44.75018306725688,388878.66
-32.07120608366452,-157.75575138707427,-2.315427124836662,343298.28
95.8480874669304,-36.53377878793967,6.582630902829896,1.1005308e+07
-91.19398775679782,-65.68204577613935,-2.828780780042066,5.2561628e+07
47.977020768243335,-146.4879781102234,31.692096050215113,1.0890789e+07
-109.99933078425613,24.166059429851686,-1.7196561129838317,1.8698608e+07
-202.86770922015438,-1.2052100098094343,-0.11168613249774406,6.308902e+06
-59.55692873926333,88.2091540812508,27.420308699577213,5.0938348e+07
153.71995175177005,-92.64471152423909,24.744678436656653,2.6585422e+06
116.92548106959549,132.57861649438553,-0.9552679349770026,2.0129368e+07
108.3204529307771,125.63540912970234,45.93357383008086,4.562672e+07
-93.06759632294053,173.86475515741404,29.262725237759753,5.5875652e+07
-28.731143634853908,-178.27679362336244,29.953402112640703,1.8566002e+07
187.53977724368332,-15.853117833849836,24.042204079268117,1.1560026e+07
-51.79165919228919,-183.33073420397736,31.107158847931885,3.4376642e+06
-61.90574464740544,162.56927966123487,43.63155609748936,2.9407e+07
66.9005056083455,163.59141316555446,-0.3572284685812006,1.1852937e+07
46.046532732102776,106.1573757251328,-2.758552324647882,3.1591056e+07
-123.55036597611038,161.91169272970245,6.838261471604508,3.8164796e+07
-6.388669393828991,191.620434304235,9.914348283729204,7.420766e+07
181.9547656117424,48.52710337474224,26.584660114772614,2.207818e+07
-44.0608278399973,150.9479602524347,45.97560520023788,2.0164587e+08
-51.601386259302046,-181.491504382004,33.39874831268167,5.870293e+06
-104.51019297631377,-170.46027457348418,8.905525220223186,1.1459456e+07
9.987118110836406,-141.21122974994555,42.76982241707096,2.0374556e+06
-144.93067159304547,110.50286571509571,45.29775106633804,1.5362649e+07
-8.728229870157122,173.10446211598128,15.423606129830546,2.6030946e+07
101.24382696104806,151.5687837790993,26.37374319347796,9.933822e+07
46.346150441845566,-95.13363127463718,2.869590880526782,9.0987496e+07
-39.44022532980989,-181.77459970478318,34.028527631361676,5.9915388e+07
-47.36283912478885,165.68494010423115,35.45390904372185,4.071039e+07
-79.82001180215354,-108.68331417747562,-4.714121177745692,1.0546306e+07
142.03890835880816,31.048520048022993,-0.2143439028035834,5.8690185e+06
-75.43232796471486,-80.79377635197349,20.767399780005398,9.582684e+06
-143.7574874250551,7.208664936627912,15.22319990870292,3.2096018e+07
-99.7602493836342,-38.620874952793,42.76924218478313,4.9532976e+07
-48.26373347179464,82.57991262067196,26.066108669031586,1.2035937e+08
23.363101415903998,144.9620596951824,43.09060347493901,3.4925364e+07
-47.321738857698165,-149.016940728728,47.35847489464756,3.5366382e+06
15.226462908278876,189.0147643863172,10.021168910349983,8.68601e+06
185.923371096714,-1.055385201162153,-3.7932959376673305,7.384272e+06
135.2342782394049,-17.292721783506693,16.41129332626818,1.4719251e+07
65.2466397079956,-174.3541850154146,-1.513997601999118,3.8155384e+07
-38.51088958330703,-178.8880687671544,6.622971597391448,2.627952e+07
-56.38950718318239,-36.672768872728966,43.8651676436353,8.677997e+07
-54.92655586741918,-172.05250147044327,-4.847164364057797,2.0631544e+06
-106.11594063497002,-140.06109976920408,19.067978657362502,2.2843484e+07
136.64630346840488,-18.1270738822399,-2.5704992692863207,2.0490512e+07
-6.866517942894262,-171.0269442953338,10.27778470941597,308813.25
67.91206004128537,80.20733652127285,17.628686102051333,1.5766174e+07
-30.267224808237643,-91.61187200016315,14.440139646988214,4.038805e+07
72.15432113258845,174.5760732555338,1.638961306801046,2.9744304e+07
-72.50794825827992,78.18546952429932,29.446310961462842,3.6427588e+07
84.4574522849025,-162.26181625574495,-4.716371336240612,4.6193468e+07
105.34702932172445,33.55675958567534,24.886410721584248,1.0657714e+08
114.48395816404968,20.12146140989941,15.818453837121758,1.3978778e+07
-5.919561958749966,169.6372159520106,40.9611063934581,2.9685316e+07
-117.66247777795505,-38.96690468222954,-3.8762569309759596,1.1449516e+07
93.66829131206987,134.41986836136243,45.9654696506911,3.947798e+07
-32.93904862246211,127.93785710096984,25.189285961754816,1.9202536e+07
-93.39320906001846,-17.88448872534491,9.771922848226843,1.6462986e+07
-107.24031866230428,8.334861446635529,-0.6557472105921702,1.7694032e+07
86.86196338516822,-124.37925300537202,-2.8482822331471036,1.5322547e+07
-176.3759064257539,-51.0060957738242,45.058348224588535,6.5116315e+06
40.23297170676119,174.6955264505889,31.33490833406688,1.12821976e+08
-193.61846260293777,47.179530485277326,38.52456590501634,1.492656e+07
104.03259955709348,30.840953109736006,12.222798368492931,3.1403814e+07
-124.92917962487059,31.503286079907355,44.61794450974236,4.245963e+07
120.4717812919003,-60.308599284671345,-1.439593651037673,7.2986305e+06
88.95201180508371,-34.4147338553785,7.2548369529528784,1.199693e+07
-114.70114927989303,18.943888642928044,43.544085931402286,1.2414981e+07
-145.40508478536293,94.20275774220045,35.122315710206266,5.174703e+06
-28.559652042777202,-98.83995760503127,33.53677627067558,2.9530552e+06
-38.47788639186817,-154.16744559649453,-3.6068185045396994,301006.7
-102.39654138900092,147.01192440616342,25.920650876410313,1.824493e+07
106.87209486308785,47.14755415110659,-3.46531245708794,4.9054375e+06
7.8654759458052865,-119.73965966794107,36.53273727328302,2.388565e+06
-101.790501382392,32.511608824392255,-0.8961788115916871,4.525998e+06
48.40451475747636,-173.96628124845725,13.793261230218942,1.0285059e+07
176.5946424121397,-20.06539621750676,27.37116784306337,5.150346e+07
112.15315586448759,-143.6172136495658,27.43545770924831,8.92733e+06
-135.19593957153336,-11.460235167230763,43.453451893031854,1.6027982e+07
-40.145192905077295,-115.70289893409944,-3.0504971138206884,6.9518936e+07
103.42187143909217,146.91280427360982,31.418490481766632,9.051328e+06
32.22166557752095,-155.5274604038563,-4.463394305825389,412909.1
136.33408543896445,125.7665511424459,42.59812914883188,8.591049e+07
-107.77145174363301,67.49802675622362,47.00553241405201,5.63901e+06
93.46218059368312,-124.04129510407273,-2.115085044382205,2.2988514e+07
-58.9965422477955,182.10359958828036,28.884749511803797,4.5641076e+07
45.563306692767014,145.73259034206512,-3.4744793594613,4.9991204e+07
67.66152544345186,92.53348312190394,17.675172818150408,5.412182e+07
70.59083581136275,90.04245559251052,21.876138525238037,2.6547602e+07
-156.7818975326573,-26.02750864227326,10.832085078927774,867420.8
-142.12555615726342,84.8623942095864,5.019059126030289,4.2557656e+07
126.90330315108332,132.46277616124877,37.297473774371966,2.8838732e+07
-60.669778663165005,-175.87407031932398,45.210515264188935,9.660582e+06
-93.13282315876766,29.819024255853947,33.34235982453921,3.4975296e+07
97.058271507325,-85.63794798496897,43.66896845464932,7.5442584e+07
-51.798336711980625,168.01773731032569,22.268835934024167,8.291408e+07
-108.08513619681064,39.46578299287006,44.88870309540153,7.847186e+07
-85.69952097272343,-55.68771030251196,18.880048686250845,1.1603573e+07
107.5052463223787,-122.44359525540912,-4.375288882061626,3.5785212e+07
-124.08722897585048,140.1559927761199,-2.706020960859536,3.0430686e+07
-3.2745617970930994,102.03530975137983,7.129342891411643,6.2628376e+07
3.178225755969322,105.93064927456624,22.79113551317327,5.487366e+07
171.29648505194058,62.69438686889782,24.858059610077827,2.239223e+06
98.45229397228849,-150.32906140558572,-4.356420304935598,1.4473795e+07
-50.79087358974806,-173.08428678926444,16.714346812704594,4.7485784e+07
62.840474082512,-61.09115113923346,7.1190109235476005,8.249378e+07
-147.1751758974351,106.94507067594208,30.645728521963655,3.7208504e+07
-22.624370830630227,-183.51187452130665,19.316425798752704,6.900694e+06
-62.13076914938625,12.25726011818628,2.39055758115299,2.0254564e+07
-27.742065342251806,-179.06843666987882,44.00423795560912,1.9401379e+06
-62.48400038123293,72.99880417388277,45.2375757635723,5.8484524e+07
-86.98827918983892,-162.1431483148134,24.606381511417954,2.9829096e+07
-94.42086259754198,89.55119920415598,14.765546755491709,4.9561656e+07
80.34300438134619,-133.49471017447098,-4.957682464129138,3.6592596e+07
64.80499773999009,191.13894246838493,13.587348416788146,2.1013856e+07
107.44799493187713,-124.23933545320833,17.537115686526594,1.1561235e+07
-70.12327094611572,-160.54010614741895,21.030142347297677,1.517718e+07
-176.75869290162785,-17.461627539817698,22.64068698509566,1.3588377e+07
-115.52079422057048,118.86691181428404,23.4886894824971,1.3679313e+07
-89.95610958357157,-15.03554323053217,10.914165541392572,2.1676094e+07
8.752888966169166,-160.89391990675512,46.39321312489815,172543.47
-170.0848393295819,-86.41719644809845,-2.589181114537481,3.1418402e+06
38.915073555026794,-187.83592440347368,25.121611478530376,1.8523928e+07
18.228345151500065,175.7255022891482,10.743958579381088,1.7119232e+06
198.12135824227198,-23.848031403293163,21.027066695152016,2.152971e+07
-172.65455367630727,39.92727743388295,26.864200380983696,260823.12
-48.75653358166761,153.10403996147664,11.48956879256659,8.020776e+07
85.7695565328865,-168.91469050696344,45.648263252820556,1.8111246e+06
-63.19077227463379,-131.67219652953133,-1.7095175799424518,2.0649818e+06
-21.372459594043477,182.6463892471491,1.32518138947799,1.7669566e+06
-131.43938034938787,123.57022118065066,47.412024242983925,1.2434369e+06
87.82106318621283,-103.3768828867293,-0.2205074671127809,5.8011452e+07
-113.63205136491754,-22.061640507445105,44.99807413453204,3.7596796e+07
57.1058751419223,-108.62683924682925,-0.4470816907628068,2.727531e+07
126.66129409937685,-46.448938552175974,-1.754313755941161,1.7565374e+07
-1.8036310945083471,-171.9758160638999,-1.0843732714287073,4.6305905e+06
13.204296844462334,-152.10167474841734,-1.3861563453834345,8.0641464e+07
121.26022810303311,129.4276161097784,3.443830081187972,7.4745736e+07
128.7745622241593,-102.01418310479495,17.61350941864563,2.355894e+07
180.5191837067896,-19.271672711606044,23.28792748598117,1.0442267e+07
42.17176575082448,-144.7690569615242,11.676184178806299,3.310269e+07
-62.111782119639514,-80.16923867415505,47.037221702694026,4.886261e+07
-57.78938919731945,86.34619925807795,18.26786830648596,1.4180495e+07
85.72873147538218,-41.85339417798954,42.5262700629752,2.1478606e+07
-172.5235566912766,-60.18231080729342,9.05820643628962,1.0278438e+07
71.8467131300248,103.43077821954847,41.89097203787329,3.5683224e+07
152.3542076161276,-67.48716975770463,47.48624253679669,194634.39
96.18446969954141,105.62605892483185,47.26690130145362,6.1652384e+07
82.09670803548403,82.80145518159844,26.120978061215745,1.9897458e+07
128.7907415029244,-3.695397507395228,-2.138822686875066,1.4348674e+07
9.065002630903422,-124.72474027789809,25.60479529690832,3.9097092e+07
14.887465450284509,-196.1039675932359,14.025627839731335,1.5371477e+08
-30.346348884713194,-176.39774051967535,47.04364404446065,4.9166675e+06
-21.532291155221515,153.25854953369213,19.094368212229966,2.6206754e+07
-51.23588449985897,90.95749085234308,17.453870936232118,6.6071504e+07
-89.23529177321436,-53.74547719501547,-3.260675892568194,2.962667e+07
-50.21295759802132,-94.77788248528756,13.668073884966638,1.0081864e+08
-177.13837869773042,-102.0631491272075,14.786284820412035,207047.39
77.69735471135107,103.0095509887069,8.390171179043561,2.8843458e+07
-129.75031962918004,55.697520814672714,42.745158830966226,8.882752e+06
-166.59782215927544,-79.74242646746191,25.245775989688884,5.526404e+06
147.26426778925577,5.250720802724288,45.867901145216756,4.0240364e+07
10.888319970866775,-205.36293285223962,-4.730816998395008,7.510436e+07
159.34294375449622,54.28047442044726,45.98414909769976,1.8424782e+07
158.44394489247162,-75.13578281300047,19.162436595978257,9.465366e+07
102.80897883035334,-22.7058870443756,13.941491073239284,6.943017e+06
-152.52593663734652,85.29044244191505,30.384678770110085,5.01727e+06
145.01126999082476,33.588780938165144,-0.5189574805647794,1.4547187e+07
-72.69418607018386,162.73972113236658,-0.14666036472896327,3.4102316e+07
-108.11300509109795,-155.82351920178436,-2.9410302159283033,2.1858584e+07
-144.1237555281488,86.2507936182032,14.603126458238815,2.3348054e+07
-53.50143317993087,174.42201370468013,8.671201134091078,1.1742463e+07
115.44541096042781,-47.45484090927113,34.28479628338446,6.2195965e+06
205.0716328526949,-34.87740742456427,16.142106456382596,1.9640376e+07
-144.3169960371339,-104.00550792267059,6.924194708605306,4.0548292e+07
-175.59856918605263,94.95234580937779,26.502494725802485,791609.2
67.0333853916892,-82.78147832321332,44.6923456239245,5.279557e+07
205.549019026979,-1.1116129409070084,12.518879740518848,943021.4
111.80506939203497,-140.12188796814573,46.219133497991834,8.410322e+07
-100.8168529073169,-153.22446467708312,12.87526770048942,7.5224225e+06
-88.79763071331584,156.938683814616,24.215034846659798,5.285289e+07
-36.404284501553576,176.7080790275511,-1.4872393811116762,8.3339295e+06
172.2287031070017,46.07597360550761,10.394386518352572,1.6692287e+07
87.25756624788784,46.7057205227822,9.585191096105872,2.2894958e+07
-42.599349752788214,-172.83212982888926,40.679081390399794,8.821139e+06
154.70059890935755,-81.04751278100784,31.635913314581956,3.3881332e+07
-108.34898963371367,143.97962477420998,4.097203833621391,1.0931637e+08
32.45841909091274,82.67227751323651,21.78388258026211,1.6863962e+07
-143.34954931844524,117.05721410908416,30.824192117681818,1.5623099e+06
-21.746176951076905,-113.34543916947162,46.37277303776914,8.01889e+06
125.16343889868944,-125.84316559348461,-1.7822346588606526,6.92265e+07
164.85582919632856,-38.49369260246888,28.343118313923874,1.8549736e+07
-120.43975800997099,-113.61075263735711,43.27476174646485,2.9039665e+06
-186.59871181341555,-102.07845072772147,6.645961538720876,231491.94
-145.8942151851965,22.928243622089497,-2.511595746706185,1.507075e+07
138.32810448585246,48.8003991172468,1.0268815088717664,2.6645662e+07
85.12672369378271,-77.34999630102746,36.40471436339511,3.0883426e+07
-101.19658237010627,33.92698671512014,-4.2826437554965855,3.4488022e+06
-166.01357834466847,131.96404280920865,21.695374444595064,1.1723391e+07
167.7088964035853,-23.469418495387174,43.45322375978856,2.457276e+06
165.39692664677267,-79.30817708576001,-4.725189731371204,4.717031e+06
-119.65623499406792,117.86624907394702,-3.428395778656055,4.66258e+07
42.891531509051106,-144.88232577494222,7.070896389176639,3.9242445e+06
-150.77812131413955,96.7369192370025,46.487281176849045,2.1369886e+07
-102.68545670283366,-153.76037747710737,-2.87164557460246,6.0608736e+07
56.52908255645059,116.04028009929198,-1.0660254864772507,2.0430372e+07
-159.02022670069175,86.65688838056195,39.79861127965143,356112.22
-41.52384029635704,185.71777685844768,46.31646976404216,5.014209e+07
49.72804814108588,103.95769729397955,-4.807250353453616,5.900495e+07
113.03135316031342,166.7494906912736,18.85646136462647,2.7168562e+07
19.545656909139524,105.17194708645809,46.71010603249462,1.6205274e+08
128.62777234842605,-132.5183994749738,-4.196694005833668,6.3234444e+07
-6.036915032196816,-173.38769027024566,44.847377527267206,3.392895e+07
145.34529960519347,-92.25976193954808,25.52629001048377,3.2420124e+07
119.2181146917871,128.86942492581676,-0.5293452111152153,4.5832024e+07
-165.42571496203215,63.11393733922034,43.37215666321221,2.309789e+06
83.23906053279632,53.35749112304569,-2.5264381802234657,2.3599206e+07
-137.7966466509076,-13.58573121957349,-3.808708901518014,2.6916114e+07
153.6355341276955,91.36227063152012,41.180593792299256,2.9609552e+07
28.490506714810323,89.3598647065636,24.83140662268642,2.0075344e+07
-151.19193072821483,105.8331386103867,13.169182083675455,3.778943e+07
-65.92352628976923,170.30116437395407,16.101464082725776,4.394688e+07
65.25138572524554,-157.31321649866902,43.20525821466705,6.253731e+06
-167.70574110611884,57.071479812609084,45.132947095839846,1.1039575e+07
-13.736463151315718,205.1298157599948,22.820969236334427,4.76889e+07
55.00719341938111,184.62992595652122,9.664788473473358,1.4626885e+06
94.21230153868419,-95.09153621272318,47.36716660466909,4.967556e+07
-51.911687990911986,-178.56115857401818,39.53038497331484,1.1425387e+07
-70.92281567055778,76.85395031423093,8.905993661615048,4.885457e+07
73.48003515054182,147.809431623472,-0.6916761391597825,1.4343029e+07
132.59733860410432,-103.29173240698853,-1.5733836696424826,904467.9
28.034099514285714,175.54702104635862,25.196422142167666,5.873088e+06
142.00124403525894,-23.4544266776945,-0.6954299072925041,1.4023776e+07
97.60487489122482,8.711774353149451,-3.8698236287814707,3.857418e+07
-74.22007571620213,87.0067255860746,-4.138468034137595,5.0075536e+07
118.8347216871224,129.58701419485863,20.96720162467697,3.4773104e+07
45.685991775395905,84.6657067968435,25.72629550106958,1.869622e+07
8.816678647152202,129.29531263045118,46.317289966642015,9.724468e+07
-1.2158629089607587,-162.38428314282447,15.737521872843686,1.2795995e+06
167.8557571704664,62.2203986204002,-0.620089860320368,2.1644516e+07
-66.1718183164453,-171.5345440664791,12.233984055593751,1.1361094e+06
-60.035003511045545,141.62543847001967,45.96490191937065,6.884729e+06
-54.172345126414655,172.3037332328226,25.219804352951584,6.0487164e+07
-40.06329162624573,-163.14310113600672,-2.916631705257046,173769.25
181.58232318136777,-2.5767027255420203,32.289828634840305,1.8189141e+06
-163.40964566428238,-82.72653405631249,30.61657577562851,1.3676534e+06
-71.20632503072687,146.37222185988628,46.28780427600492,4.5222224e+07
100.38576797980778,-144.64510414121773,17.939924410024307,1.9872452e+07
123.51494991253094,27.517740055240694,44.331123456787985,1.4590319e+07
183.0902510792668,80.31834399468141,19.90630607525248,59165.637
53.28195563599269,-127.93740198398204,42.762084849545495,2.0027856e+07
-146.33074280868576,117.82603367022568,40.91440248436736,2.2746356e+07
-124.1882573356135,56.706791779858975,32.25008333830165,3.7470158e+06
65.02366925785088,-174.47349169453832,-3.680237202172635,3.0051752e+07
125.31589219795387,53.400648977124774,39.24354054302524,1.3213403e+07
-105.08614857314863,-19.356314653603278,45.82026005072434,4.926172e+07
31.053070065755946,-199.55608098605492,41.505374706811914,2397.6907
-125.18944893488147,61.91045709038963,-3.1089817977961367,5.9461045e+06
103.004002075002,-29.001012622563906,43.29231270581916,1.6373634e+07
-54.39565211331271,-170.6494992160839,44.75426993495492,1.2120062e+07
-23.532381532613527,153.4591827426675,20.550732957246066,4.1975652e+07
-44.177529764405506,89.41834193552768,44.05289777359596,7.572842e+07
-162.15161625143153,-82.0205159366634,-2.6470663997395794,1.6230984e+07
-150.31012102133525,-57.21834702755365,29.34505596000141,2.93253e+07
-106.05608352986357,-90.63841601671356,23.559625077975074,1.9681724e+07
-22.990351813834252,-110.92300124526221,35.12156674570577,2.2989894e+07
-130.75529596349242,126.53531066872478,14.872329048123088,9.37832e+06
121.46095807574972,131.3156407401775,-3.754368312424834,1.4515041e+07
-124.93642125157398,24.055091021766344,7.844314896553426,6.430511e+07
192.55715005729002,96.53277050865728,-3.2779541503170426,3.0318186e+07
142.62940695390893,53.67939152379847,-3.741559510150898,2.4056298e+07
74.24623553239547,-68.02159352321593,0.865383328693893,4.364593e+07
-156.49514935352144,90.53312073891834,-1.8130922692289335,3.1641692e+07
126.26611423834623,-133.06035780120092,44.680982954855814,6.02204e+07
-51.443513411438744,132.65684232453975,-0.2860027440258204,8.413126e+06
1.358704777702826,148.79594821197713,-0.4451661101337647,2.171388e+07
-71.3563662071956,-80.38017813929267,46.50089182547423,4.3573668e+07
-0.22925765658899877,-122.10589495611522,-3.832836863590043,5.8113428e+07
-134.19466428158006,74.08332136362736,-0.9159484281487131,3.1282522e+07
-80.49902103703252,20.60087339959864,-3.418911842899761,1.5129987e+07
-107.98578224351407,-108.72703491691036,-1.3952048792708545,7.005285e+07
60.27118720202719,194.00483470287554,13.44790930230796,4.6323764e+07
5.917070718096539,121.83242698866303,46.78204507629642,4.561067e+08
-88.57092237802908,116.97473340142596,24.17280843034583,3.0983234e+07
86.5388391020831,158.5302939884299,24.12541648452101,2.334331e+06
57.193366886548745,170.63412775187675,-3.08860732210652,7.6126575e+06
-42.09129872856403,175.35255691249625,-0.9962545274504206,1.650843e+07
-43.27273639329405,-184.30247085159152,45.45479844568215,8.567667e+06
154.47178344772766,-92.16323437105316,-4.932037508157775,3.8584082e+06
88.03392038618733,129.68409764998637,-3.298609180977074,2.0410822e+07
20.751143700777305,175.02886920656567,27.01503201331701,1.0452015e+07
18.570527351675537,189.78186537588806,20.726261407096803,1.2070271e+07
131.55291280689448,80.0090512192478,40.94781392906839,4.3823532e+07
83.29697817442559,3.917394454196483,15.350177336097456,2.2012062e+07
109.1833725360413,-110.18814073999214,25.12547227891571,5.2043332e+07
132.29690077833556,104.25957132707481,44.45166892192513,2.3275542e+07
-209.8577645815844,32.087065229117286,15.431068630768848,9.256768e+06
50.939773292064274,83.53211810853765,25.886484323184863,5.590546e+06
20.170779700334435,133.43253884442845,-2.7676827236079795,6.6145708e+07
136.95339582237068,53.38483329193582,-3.4202192517463015,1.930732e+07
-131.77624499412389,-67.91088645771984,13.469529195260588,1.0777178e+06
-156.06405140359277,22.71897282066311,43.915269430387056,3.1397812e+07
-57.61428336010803,130.40970023659344,-3.294441347178444,5.9745185e+06
91.25163568741357,11.700300784218882,5.660220679145674,1.2928519e+07
83.9762166667631,-88.43080691531105,25.72889194824615,5.983684e+07
-163.1920242626828,-25.37694691852633,28.29525460349239,1.2992329e+07
-141.12155156694322,-27.42058934747206,-2.2077865826576626,4.231036e+07
83.86073247983848,-171.63705276441982,-0.4949384260127916,1.6285832e+07
18.19223245838424,142.87053341108816,46.300798104685995,4.8397976e+07
-156.6250955884913,-4.8072995653930946,-0.9188357300865615,1.2179223e+07
-71.85558141918438,-148.98139033515628,-0.4151972445579206,768448.75
145.10833625367155,11.872339438277777,42.85428094969654,1.695774e+07
36.04287929240118,169.43780737247988,26.604792707336557,8.799758e+06
-60.55412651585212,-103.83801418909606,-1.983240717126729,1.2991355e+07
21.565528288548478,-166.0349837126596,-3.5083227410376683,822432.06
-74.72167231174689,-173.62340387288566,33.359965730298214,4.234439e+07
68.55413898776317,92.48880480779064,-3.1043116822588512,2.2529006e+07
207.97886630220285,3.8018628745429623,1.2916980584197582,6.824291e+06
70.39155531514865,-155.50174447282086,32.71749887410063,1.2639329e+06
77.2797067986424,59.80308791765361,40.099272897670744,4.4411204e+07
-94.11105244484169,-64.44517096002181,2.825009862472508,2.2015538e+07
-51.27329902086845,-171.70271030636854,47.00713828552245,1.0865403e+07
-29.7750868964026,-94.17893105014167,31.373447211817357,3.9192978e+06
179.83669399374747,1.2876896806412503,44.875944204981344,1.8012888e+07
191.9563733534912,36.799145631721274,35.76769420515123,7.869094e+06
125.82707750239575,131.500315670225,18.580819659648714,8.564597e+07
-200.95317707816176,-17.918647490830864,-4.499037291400596,1.9795392e+07
41.5266972673337,-83.14834726482849,16.58615211783047,2.0728996e+07
210.06690026759367,-4.656248829720141,-2.1122840696819356,1.1326244e+06
-62.14790941460717,140.80760998063982,-2.204347710176488,9.661947e+06
156.42440163366012,42.539030816954096,44.913482659176545,7.061714e+07
201.8006623964938,-2.9978778059157776,-2.213673993223844,1.5865584e+06
163.3928662995737,40.1146483138767,30.795069666420346,5.961709e+07
79.52134130746299,68.0153548486723,1.072532830512971,3.9620108e+07
23.023761552327016,174.8935268771914,34.46183803673912,9.842264e+06
157.2462651515791,-46.87565343092808,27.04910700690457,1.4353185e+07
35.78630357252351,170.9813560575007,45.209077069140385,1.2491999e+06
-43.33615071814492,-175.07562027435884,21.161765066479564,1.8925216e+07
108.09906417541396,-60.0038609941644,47.46946021300203,2.053087e+07
43.433059185438935,73.41731963278221,14.520786002349823,5.53604e+07
-163.00303982012056,3.381208577493936,27.529205350366865,2.2432352e+07
115.47543333944151,-131.07212803537607,16.35878285279309,3.6853536e+07
23.8848220704416,99.61924540395052,13.264715902039924,6.072099e+07
-111.25143809861545,-185.75688894362273,25.215721287222493,1.1656389e+07
-165.26678517302778,103.62227434312223,12.402766284695488,2.6326998e+07
-150.72097920538943,-68.67281549542068,-2.501052692561109,8.928338e+06
-34.01383315449951,-119.78172817823882,16.512333911656683,2.7865152e+07
-128.56558834793663,86.235467823605,-3.985142963003976,2.425697e+07
-155.06688557205024,107.34070899626175,5.906590091950715,4.6840316e+07
-123.57667658177697,75.55561775687664,46.48648994834091,2.0732342e+07
-10.384610739979621,181.0424239569316,-4.812123827044077,1.16941256e+08
-1.5269321072477737,106.41016156051273,24.082781304051238,1.2281537e+08
-85.57363431143918,41.77981484625673,33.13384257924608,4.89826e+07
-4.9103505839157435,159.7230593669147,22.83633817090844,9.049419e+07
164.85077260622336,56.93042289855151,-1.1041717005526879,1.1952505e+07
-157.9886854986986,60.20917103531997,46.02751103162631,975536.3
-126.9687900186441,21.352036753071644,-1.2033054079050651,7.5176615e+06
129.43003691382125,-85.57027470428034,43.267140265635824,1.5547553e+07
-180.24382569843252,17.70673886836431,15.057061902056802,1.6709751e+07
-84.12048135790664,-17.792337297383284,24.253346113340427,1.0264605e+07
155.47651313729153,-71.88935781885678,44.55321832363069,1.68583e+07
62.548970797250036,164.3753784549633,-1.9555877562528492,7.020936e+07
-118.71651446415436,140.98642167164377,-1.66774492734437,1.0826279e+08
93.74055508272846,-86.76554059910188,6.242614620304444,6.2121964e+07
-76.2352739286666,-71.81085881245414,-2.9705622132282246,2.1103746e+07
53.16913400703419,166.6798883878675,24.77659118294256,6.641948e+06
-116.98406757280618,-29.97697911976138,-3.994289835369921,1.4994365e+07
-99.43676214532508,-1.0568340477256015,7.306233916479334,2.779785e+07
128.5695572679428,85.73413922784516,-0.2906772777199551,2.7526808e+07
-103.97524143985112,4.449732383790462,39.331512749614795,7.338862e+06
-32.612064473408196,-188.12023006153163,33.80214591808123,172765.31
-74.83659390792104,-177.171583378541,7.169045882475205,2.3053424e+07
100.23643208122638,101.35264550505906,-0.33858834419555883,3.3106898e+07
23.0478167546558,-97.81494978884642,17.803442117865313,7.7059365e+06
133.8404264962905,-133.87295067658658,6.657977813883154,4.4351664e+07
-165.84834673208053,11.543497353560042,19.109657111045646,6.4164784e+07
-102.15898878523193,-103.1220675429617,21.536638399448826,1.1974381e+07
-88.74485543029368,-148.90015073781763,28.995554005543802,2.6776278e+07
162.8468099359378,75.51456408939669,45.77407227526625,3.334012e+06
0.388969013916153,187.34283313450004,30.670332614065188,9.106854e+06
-145.40521243330141,39.00148938230177,-2.478342149905717,1.7642778e+07
-64.7172979095401,-73.5099538854906,44.34329957438643,3.3901004e+07
100.21745680900426,-63.16325581442649,-0.2036605088354113,5.6384708e+07
177.1311725058606,76.77345512547458,17.04783240260606,157971.58
-127.68295977382336,-86.71956725004202,46.08639952761176,1.9972636e+07
-85.23947691785347,-33.08828684323049,46.72758236256648,1.3194445e+07
-155.10182713716648,-79.11866869408868,15.445019517682663,307350.03
69.15776558909135,-112.23096379375545,24.080287876764178,2.4989834e+07
136.11508223549697,-34.575848359412504,29.010673980336925,3.5374192e+06
-89.54940763309214,147.77808380002585,-4.911082426094783,1.7702074e+07
170.24785587270105,-14.672441063995876,40.78219883021006,97606.06
-41.18740555636313,102.77392591607844,44.25046204557953,2.2479916e+07
-57.74441779613096,160.10738681746386,-1.4511739699556752,5.8062544e+07
183.11060232986472,1.956675197744289,40.31696128091036,6.397114e+06
-14.945984418687772,188.08372293440755,12.403439673792512,9.217699e+06
93.75987157361891,-37.863162996288395,21.625148681568078,8.675024e+07
-57.96208086593805,97.62107928412928,44.85794072958769,6.619967e+07
-96.71457966840818,56.71494226157955,27.083655054141985,2.5346548e+07
-82.47730690147424,68.21722880408885,8.949317135269663,6.776338e+07
158.97775814865713,-87.16666996953963,18.87233394601061,2.6784798e+07
69.75519562584014,105.82477297445132,-4.518352908221386,1.9107562e+07
104.56174947814645,-94.10216655617857,44.626717277831595,3.6620132e+07
-145.31922861022417,16.57213458696137,-3.8306189813722584,1.942677e+07
99.676284127739,139.48658250833404,22.850637461420675,2.1602274e+07
-70.80432574567138,74.11414417928364,-2.263377533218293,7.564335e+07
-43.20852485360305,-170.95752483744516,16.873996084815918,3.018419e+07
100.03450049176485,92.23311701854055,-1.0203115518805985,7.867879e+07
41.88040175873522,62.75369016778541,37.37899962815825,6.0308876e+07
-12.102959671573103,-96.1984247526959,26.52520412054023,2.1408052e+07
67.88438736465207,181.40963842131788,21.155650336063648,5.068615e+07
80.62978158414262,171.50711166082277,-3.9885169791349178,8.045864e+07
34.75357877460752,-90.26428434902755,37.95461339787307,1.0851908e+07
32.852485240670404,122.64974565004064,42.86771262845094,1.1795346e+07
-97.09028897746691,6.318936826615925,9.834450591064261,4.325017e+07
109.45586813759905,-144.9275922183478,14.477244624062443,4.4255492e+07
-120.49265535469306,60.316147195737074,47.45366748009029,6.2269852e+07
71.70473627740108,60.555988704613696,5.975505772455335,3.590766e+07
111.04386486024214,-14.529842899142011,15.612608726786394,1.6728458e+07
-155.3871652842392,-82.05594199824628,-4.062516387524756,2.1948264e+07
91.49791338665642,56.62064463674392,11.203050746720447,2.2467752e+07
129.0104785487125,-127.6996668600759,36.64761582277289,9.976043e+06
-136.7784536184745,-45.394940545096375,23.137800618129276,9.076911e+06
201.53764358217842,86.09706412649683,38.44347915035821,1.8481908e+07
185.1849089241892,44.0516650905592,13.67489317493347,2.3683078e+07
137.957474875809,-84.33214532887536,-1.1372879319196478,3.0042586e+07
-144.99071897705926,-99.03940677306365,19.808157932869413,2.3308735e+06
-166.88121387772634,-81.67179480876402,-2.025668750690329,9.366325e+06
150.42830059636037,30.02826679389895,46.04666826309629,1.6395545e+07
148.4210035830527,-101.08376546576213,40.89847642353415,1.0465877e+06
104.89036450850887,-15.696031791204177,45.42403916752107,6.754686e+07
76.00974511007422,80.99218565398871,34.50193080757786,1.3124681e+07
-177.8547217670209,-50.15452149171125,25.04047036859543,2.2107358e+07
72.02004192651492,-97.17526716285268,20.292929981839603,4.482131e+07
94.58396994764104,-150.43196912978368,40.61656271961565,9.190613e+06
-13.846966118447057,-108.6011752179062,38.72544642442709,2.97284e+06
42.2737301728132,-99.76784102918825,43.88164834384692,4.806858e+07
140.41118896448654,34.11305043030444,-2.393099361767837,2.8314018e+07
57.20186873060089,102.89309925204657,-3.0305546279684927,1.883214e+07
139.2187966541892,-107.86952451081609,22.791753451187795,463041.38
79.22006159623601,164.7841859685691,20.064443654337026,1.1419094e+07
96.2462169302525,47.55324964835518,-2.7602780825289623,4.185882e+07
-121.60267323889178,-41.20354604819477,-3.1757779404821864,1.2442275e+07
-135.88835813826194,-35.16318957683083,28.09770265503196,7.241102e+06
-171.096681695482,-21.983361181204174,-3.0756541159795536,1.1741171e+07
56.930324192866806,117.30799078441646,22.376838055908497,1.0241325e+07
-105.45242645047792,-125.34384551435849,23.619709414352638,2.0530532e+07
-84.37685536811523,-116.52708558303198,6.862114088669072,2.2452664e+07
-186.23417419748324,13.889513443234563,-4.14576744392652,2.417385e+07
82.28635398279454,-153.72663758417167,14.449323252393796,9.425711e+06
101.97671946387771,133.68979202990204,8.246912471774502,4.234694e+07
80.50808264405799,32.27758500558818,6.152638681511604,3.7096776e+07
-121.83279345375487,-105.65997278957288,32.23787490423083,4.242597e+06
79.7889497585291,-65.36258846723027,43.1763384979301,6.001746e+07
-26.39412422307379,119.71411108251459,44.93905972339943,6.1920944e+07
167.69574685580454,93.54985397064098,28.84519180986812,4.43712e+06
16.784362902442865,-110.22576537897056,33.51636388047066,7.7913245e+06
-89.72348050908168,-63.87467743128556,16.43464919018062,1.5025792e+07
117.24188044852872,103.78008988799786,13.419226261261098,1.0631964e+07
-97.61665690093268,-159.2315995314845,46.02028343395391,1.1714867e+08
-124.27336992023632,-72.91130494794521,2.9811880914609503,3.6297145e+06
124.61865379935881,-29.96079950259741,-4.503666668487647,9.0113896e+07
-159.27106692609237,-62.750637897253995,5.525700152176652,2.6456676e+07
65.46172615383881,-85.0795664879698,-3.1665611732494723,3.5292796e+07
-81.96614668661388,-27.517677910937266,18.831115926992588,3.6980036e+07
-87.6894771252948,156.09018985028075,-4.516225818739102,2.3579734e+07
123.52020692147278,-29.167598478244656,42.73892472939411,6.574929e+07
-47.79762228083894,-89.03450280795205,27.073601026506353,3.2921356e+07
-152.42650121721582,-73.25388707497424,-4.513140471417472,3.6515136e+07
-147.27309301837408,113.46395444941743,16.689420121516196,3.2189102e+07
100.37569523601627,-6.358457374367788,-2.4648592103086275,2.642444e+07
19.268594095174876,-81.23955348286853,29.65438424673072,2.8811628e+07
96.69165899765744,1.3128319847144212,2.6175873734324036,1.4773729e+07
76.60585035361942,90.33533023146498,46.7745508571844,4.132689e+07
0.21976622242499388,-131.83614924259552,-1.9924534564229872,2.0099258e+07
129.35376597435817,-84.04321015108732,26.479026783691033,2.0622592e+06
-182.14735230274118,-27.177392866505016,6.369428588736556,5.1443685e+06
90.59757253871771,-91.78770330275115,-3.536362140507026,2.5394256e+07
135.22635498186747,-26.57263281383746,-1.2758129766023236,1.2758406e+07
167.04120003050622,69.7028383817867,21.919086680641353,204866.02
126.68137134457328,-105.1342196927661,44.080399126931184,7.714831e+06
-152.5618001290372,-109.16288270070947,24.157261995402884,1.9861898e+07
98.3080579587039,69.88268042417627,-2.813520542741394,2.3184256e+07
84.28778039222095,98.82150806027443,-2.0714695125592866,3.2191964e+07
72.064045869935,15.049332227132453,4.801697679805727,1.2877939e+07
95.5300663585752,-92.29624858796585,-4.4230877745694555,5.4089996e+07
131.73348349303507,57.35230076352133,20.24867526799337,5.7573535e+06
5.539004335106455,102.00016159405698,28.061784309451866,7.4156664e+07
-148.4738963627588,97.64036202900178,40.58483119989108,4.442034e+07
193.95673352086123,-9.76560464319013,-0.020318715513003127,9.104685e+06
-21.152149966849123,102.99336761642388,42.99916184590564,1.717464e+07
-125.69788809779035,117.40175232873577,12.015280653379111,1.0890652e+08
175.9191334472166,-16.894049353984258,47.228276887528416,24468.867
163.23879661669224,-52.15774856134715,-0.6332951026000746,1.2708422e+06
86.15287797836788,-38.91713087592379,28.051971778096473,1.9469368e+07
-165.1499677744843,-17.11460633107103,17.043215024124788,1.6356751e+07
-79.60441114303472,91.94074971054943,46.666884425571276,1.3964691e+07
-136.5093456836783,-19.16245000832282,25.303140255787998,7.048631e+06
-25.758085774977786,128.23759175714855,6.895399517086059,3.967925e+07
-180.36008003309584,-44.53805249679914,35.66320770714578,2.46356e+07
-1.1501639760702744,-209.05575675671082,-0.8495256293733364,1.4088869e+07
6.537947741717716,178.75452743734695,34.428132490941834,6.532847e+06
165.47474610141165,-73.78533587776388,8.237157464898523,1.3974403e+07
-37.70516494890191,171.12389430265762,25.461847742116372,4.8899504e+07
-98.10232640935155,-3.1252416819772577,37.1707907818999,4.2721668e+07
171.19689569425418,-30.90593745648971,14.872428888276673,1.1550488e+07
-179.95424216759247,-57.28021744303334,-4.096331215260291,1.4165067e+07
81.06120590212936,-139.69866939910128,-3.4074101366375924,2.724587e+07
46.16638679115806,-141.51361376588247,45.37886093652227,2.6357118e+06
-90.20328694762877,-159.12775908459537,11.016058298699946,8.993744e+06
42.62280470270815,-189.68619850462107,32.58510288620133,23701.309
-136.26819426280173,-97.77422422614512,40.43511203974685,3.2181682e+06
73.48267499344388,-74.33660077007625,43.92508926009266,5.927115e+07
124.99942666334272,133.6114247042584,17.169191415615032,2.926704e+07
-171.85416950552215,50.92186064249711,11.647367813312258,2.5308318e+07
169.48555305040225,-64.40284983827001,25.653840443635232,2.9639996e+07
134.89230057637434,78.08350238706663,47.01224891038788,7.2642735e+06
-40.786092760809765,110.61243654166731,0.6635557475290623,8.770972e+07
-35.02429507521913,-109.3637665433269,44.45509468601904,7.285655e+07
137.84390979559726,-5.352329814655974,-3.9779574616283275,2.4400532e+07
-67.08248581748848,-170.8048506847969,43.281892491526406,5.854349e+06
-94.17336560643233,-31.496144850843052,32.598441283284046,1.33425144e+08
-122.93515369200425,93.83124946781459,23.083756662184616,6.3968096e+07
-93.10948729847806,50.98104480704245,27.710909071131802,1.6756251e+07
153.40780971944747,-99.3388029300359,-0.13174981269744723,1.2036114e+07
-96.34767041966411,80.5962075128075,-1.2216250379446865,8.574773e+06
-128.82383082206445,62.371230518383754,18.627314482545874,1.2406994e+06
9.723404301194762,-77.8580630503518,18.760463794006697,5.7163444e+07
150.69399029375552,62.777134655976965,-3.5468066061873733,9.881737e+06
84.16635155081394,-48.31529385578958,41.620957679383736,1.0186857e+08
-25.557432692159182,-128.79462383024088,37.564193433219145,1.09305e+07
-181.02477795399625,40.72686833179236,4.711722706367203,1.5111852e+07
116.83446266799945,45.72723625265479,12.530390346477482,1.0555877e+07
-171.52436608972585,56.143960784202704,8.979938301555183,1.2882753e+07
-143.12482238164222,53.716050304170096,-3.880495660755882,9.68172e+06
-114.13261955301277,140.20309913196462,42.48385539216238,3.1303488e+07
-34.335385739823636,180.80316065120655,22.385329221109334,3.2986516e+07
-27.521901427363986,133.09678284019276,14.626118666871275,5.283778e+07
14.410027430304865,107.86737801363319,2.7646054801590783,9.00786e+06
-74.45192215985014,-117.60633540930864,-3.2980062955408913,2.003898e+07
-120.98565732882662,-35.08808827230672,-3.6576026844256555,1.355786e+07
79.09887178300255,76.66490402560174,1.6614623067599537,6.6146676e+07
-166.36973357240453,-30.73083022455168,2.82020733399077,1.4951345e+07
118.28544271965353,84.60999468203539,19.728065536217493,4.2650424e+07
153.6499864453791,31.739419093153344,-0.08881941561598428,7.5575535e+06
10.702977103698544,130.7425466914603,41.47706944327332,2.9975485e+08
106.45827350781684,-61.08423167851984,42.87483240524727,9.019817e+06
-88.98321184891222,-83.78051962606497,44.70697770603441,6.0134736e+07
-22.272798811778102,-123.69668522426032,-3.3958773070311823,2.6243688e+06
-1.3187978817691715,146.5305093311443,43.44239783801299,2.7786838e+08
-122.09135396784104,5.908293802931496,45.9478388681539,5.6685005e+06
149.86094763599812,60.08154120272269,-2.3394262193420308,2.065009e+07
123.05136492005232,71.2983141997471,42.524840980990604,9.676504e+06
93.40427302137573,-53.711747826728526,43.0251189936336,9.6543e+07
149.84140845715882,-91.38988558841027,4.827027650185469,8.582547e+07
84.07277130555809,154.41577041683684,44.361525878927054,2.3850622e+07
147.66762577001066,64.6608810335664,42.649540507233006,5.3795075e+06
124.70951358440857,-120.96454203231062,32.48422615982923,5.7860285e+06
136.30350083842768,-104.827180501966,47.36855405000003,4.296666e+06
-9.66679266682246,-100.87182876879059,14.629945895444148,7.0941045e+06
177.2525890434373,49.003947866489455,35.15253596612849,3.4822076e+07
-12.900359062915498,-108.72596208227284,14.018313638895464,5.095519e+06
86.57010192382813,72.11687766893306,44.705645088212364,5.158155e+07
170.26263211312124,42.23742275261844,34.267624784905,5.3460476e+07
-168.03195076629635,2.719973265245727,23.167298873922043,4.0511465e+06
122.50508528111862,-93.68351824745027,46.38652197568226,7.2231475e+06
-121.50574584958657,136.18371992986488,8.348963710164352,7.093311e+07
43.284513203585504,159.50678482197623,-0.32252586889475854,123139.02
-142.95251112376013,-106.52134782763984,30.99636114639015,2.0838705e+06
-4.072690525413634,127.72719003087639,42.880113356815905,6.4612516e+07
78.18272914787406,170.7193379272008,15.294276898821941,1.0427636e+07
-107.51628098772814,-32.14057345665634,-0.1308684065386494,1.4648456e+07
-59.891213007175764,148.82499658218433,-1.6894016584445333,7.4148925e+06
108.98948989548234,-19.91285598998178,31.248425407544197,1.1342711e+07
45.62279878571849,95.05612544029128,23.90755589682362,3.0572378e+07
-150.01292367813932,-67.30507548986685,13.326703801552828,1.8284552e+07
143.42413259008197,-9.62587033892089,44.706276929291576,198418.3
152.8026798883023,123.79492021878212,29.160875621156258,1.5535589e+07
81.2909487367499,-96.60354179848711,22.2383123033477,6.466194e+07
-135.42559838354165,85.17843112780258,40.82567708511256,7.7671035e+06
-75.49421809424103,104.14180585690593,46.224473388665686,8.072177e+07
43.06101211271664,95.78600556699934,38.42724585226483,9.549553e+06
-131.6302752961757,106.05261763927376,25.17632946849353,3.249113e+07
-129.28778775822153,4.3486803882906315,-4.590007582435238,2.8303092e+06
112.22778054099922,-49.53390167744544,9.52827085952746,1.5529847e+07
-124.88536175088387,-107.76991361698609,19.255317232010736,1.2359987e+07
96.58417633466007,28.41863917976545,6.318459525788068,1.9192494e+07
-106.45557186478074,63.876577678423416,42.985489218800936,5.1107455e+06
-10.726292256625726,-157.94291669628095,-3.741677749759132,4.688055e+06
-103.20044712424357,-39.20854706273539,-2.432820133625312,2.6143622e+07
-20.768165190503424,-150.7468584301747,16.17063343101939,5.901484e+07
-34.27248241068739,-108.11171071140708,21.07056857691769,1.1098405e+07
129.94026042334173,117.51845479361111,24.554054005212578,1.0256097e+07
108.40918888671382,3.939586509984622,40.59107044219575,6.2291612e+07
119.06363357327996,-60.88435432777146,-4.067382457064626,1.3542346e+07
92.11150695562725,160.7664412834751,47.01003004156922,2.4022954e+07
108.09108737976766,-145.93457042873538,31.826579588397024,4.136747e+07
-102.08628099398999,-55.778911619856046,46.124146190933075,1.800186e+07
-124.70937935991249,74.47892352692952,44.65222768671865,1.3664192e+07
-39.6230473044279,-175.02985821895896,22.93382017436369,3.6967482e+06
149.22391450668005,-129.31213556536227,12.95531713371259,2.4221332e+07
151.7110109870756,-109.47629519267251,12.274973719324862,5.5635976e+07
-164.2726446785585,94.3087691986496,46.273580478094374,472990.72
139.92011965617013,-10.641470364911214,43.44763044129004,189976.38
-54.113617817106245,-204.22075694451047,29.934092841057023,3.2765182e+06
-187.19378196211892,-9.403510508380577,46.161584992259336,5.27155e+06
-19.431500647907143,98.40927404164233,-3.10337015813319,5.4068252e+07
-83.51835764767137,-137.35365103615868,47.26254799963937,8.162969e+07
-82.91875364872394,-154.74642802746746,25.79065897227343,2.1185747e+08
110.83985915371403,92.23742406761079,40.870959931413324,8.650367e+07
-9.263152186343007,-145.9949929023499,-1.8727816063481932,3.23495e+06
141.39846144885297,68.3238263025138,40.334787492654144,3.5465008e+06
142.53473024485788,-119.82433743951755,-0.04216253318343721,2.5230938e+06
-146.77498602747573,-49.24212038840386,43.53350861146695,8.746508e+06
9.190118878874955,-175.0200564568767,17.646253697349586,1.8910181e+06
-0.24567255026968837,196.63590310811486,5.982087194935888,2.542699e+06
-76.5525372991633,108.74439166308656,35.57435732668169,3.2562008e+07
-153.73747478119662,-33.53813389583485,15.266148521896344,1.0684231e+07
-43.03189782770119,-150.18735670032603,-2.784600520897142,665305.8
179.50385474832922,0.5013542161566704,18.879506680572774,145234.42
-147.37619849222656,-6.510630814635078,-3.1804451883746356,1.6836034e+07
113.65473523000844,62.06458408523872,43.03008133217404,2.0867148e+07
-13.318427440637663,178.15172720930144,17.33591929373762,2.522375e+07
147.01446475140995,70.07265985601043,14.476331274417092,188147.25
176.07331161411298,119.54723301622539,21.48358611865163,1.120055e+07
-56.69292350949894,107.05276452463141,-1.3759180020517348,5.034373e+07
60.36282274842904,-28.619834791177823,44.90515069448173,1.266686e+08
-164.0018751255413,41.29629472222166,8.11194826289539,1.6002236e+07
-120.85907750112565,45.862278183599415,-3.1956485115052033,1.6098097e+07
62.16817588908151,-94.9717229400779,15.467574389180754,4.5753284e+07
-85.77238338529708,-79.45389012220878,40.66648334076992,3.6291316e+07
-85.68364675194249,-137.46146755624488,16.478619706173493,3.2223876e+07
42.16196462236991,-103.68818346714518,11.963584297602722,9.519973e+06
-110.01370280705046,-128.26465776564453,5.194839059872859,2.2003706e+07
167.09760890552474,61.21746603622421,45.05148385308045,2.3030802e+07
-83.75531368130865,168.87442677621885,-0.875817393700272,5.42378e+07
-87.85057041836743,128.27226351661528,-2.7175607483319846,3.636361e+07
-139.7625513490201,-115.56453372913492,-3.0376629401395796,7.6327015e+06
130.13681101939818,92.75522787971767,47.04811122395267,6.6258212e+07
166.53067851670716,36.64943646623465,5.535287352429519,1.2813214e+07
-154.52904228640284,-98.89418328262997,41.070694722289446,382408.06
-47.875819641784375,76.79513402956667,27.419175636742608,2.3240388e+07
-82.02554684190139,-163.34475801469912,14.55769416109342,9.258868e+06
49.97602272622038,87.47324317219721,-0.6459372695835643,1.9340704e+07
96.56695748001272,136.99753495965183,22.320130359013728,3.9101908e+07
100.7695128373706,59.55821043588054,-2.9682283217677736,1.8806794e+07
45.70012332955082,122.12214457227509,44.538908235295345,1.5859309e+07
-39.20294882586876,122.9912256031954,-2.27655799273918,1.2181558e+07
80.46641970474491,-78.84448803524614,45.1539735482576,9.294121e+06
-162.67489362429066,95.0340127521194,43.13617972528822,188815.12
-152.20009622197819,68.69078564762276,45.11655154972342,7.906139e+06
-75.73725570545065,36.25784793274718,31.678648744049617,5.035592e+07
104.69580516837465,63.70201743741109,-0.02013987356558644,1.0468974e+07
-4.923718122583011,164.21144857880012,-2.1000182359540616,6.2595116e+07
134.05136791979834,-114.01491237773676,-4.946966652010782,328397.3
-53.04522069517506,-39.6539159706692,-1.7654355149304908,1.3642792e+08
145.13218729895937,72.8933192377059,-3.776357600838434,4.3168948e+07
-117.77501437596136,45.173488731753594,43.48103637045973,2.2959476e+07
-112.80313145479249,-125.04514997061298,32.98742640458508,1.0290846e+07
67.57827449489571,-77.12267083318446,38.85308418921448,8.5555144e+07
157.73877491926282,26.19283691614237,2.866494322791784,2.3252906e+07
-90.9654613337455,-153.36354419846958,15.181894704066302,1.4193189e+07
-123.50461423657369,55.7020719840869,42.68642375592225,3.9277425e+06
-113.0610547187617,-180.80291098937326,30.595905698392116,2.8624862e+07
24.311474170606715,3.2174019262147624,8.101576832045957,2.3876188e+07
-87.10922714687871,64.99011646253581,21.496646280872515,7.4764245e+06
-71.16120013140679,65.3992579721995,37.412458652444364,2.2143502e+07
-38.064597823136495,-88.28695513822414,10.421824302838855,3.1801264e+07
25.26206956728103,-119.82419930705159,-4.2694139116521965,1.3690491e+06
-167.60799367911824,-16.991274670313913,46.165921424614126,2.88017e+07
118.95500218306807,97.54884330947783,-1.5021313224777662,1.2540201e+07
-84.16629048544931,-121.72797917913304,18.990837384058317,3.019308e+07
184.5320276602369,-45.402160386393575,11.423034969850129,1.6449848e+06
105.16010683480715,-147.68330998990558,12.48750859929105,1.2374793e+07
-184.48764978287298,12.347670474879749,46.14744632682888,6.716361e+06
-60.78661934420924,116.64110031142889,40.99338386719246,5.231016e+07
107.09392909150262,2.7717824879559316,-1.2696175549030295,4.098437e+07
98.73863351856704,38.914615598113016,22.75415400901788,2.2534688e+07
-17.453027266994866,-173.63633237502012,33.18658688528957,1.5987289e+07
128.9919677435961,17.578583845018926,42.80849594429629,4.3457908e+07
98.42022259393849,156.20773893022704,21.75486373478439,9.842644e+06
148.82801515158553,-29.528056196603444,46.787134020746386,1.4685735e+07
-136.21665215846764,92.55938126331381,-3.626846624228544,1.6214733e+07
-96.16657037703112,-7.427228151858941,16.651587110305528,1.5343219e+07
12.486495961859475,-131.312291807296,-3.432558049496678,3.0035048e+07
170.24825465063583,-64.08178977246448,26.469595157022614,1.8730244e+07
28.997271961186556,-98.2272259434318,13.257742281412536,1.3254327e+07
118.15995453472374,134.66681333276495,1.371164672980278,2.4641574e+07
-7.25703309151956,-186.69574290641967,34.88441076854856,11183.625
93.64307251218412,2.366116350025976,6.160224964073631,5.688811e+06
159.8409099125256,-103.45527105999751,25.387339607443522,3.0218626e+07
-89.20995906788636,43.499239804574415,31.502787452493713,2.83862e+07
-121.87593329453352,45.26473723918593,42.512850127100016,2.4360846e+07
54.58794125669158,174.55350711546015,38.80189941424534,1.5593126e+07
77.19897150096261,-155.5774814895103,-3.1012020369976763,2.403518e+07
68.15035238598227,-173.84776393511368,38.05882788254991,1.1125982e+07
99.70222861064201,29.227234277285504,-2.500038091374611,1.4225654e+07
-99.68471606552183,-9.234046472221138,14.912812520906709,2.5782308e+07
-53.122469986268555,166.84599582283425,23.047339797384616,1.6461824e+08
-148.88866554877455,56.76532416067471,29.208112464082525,1.5417254e+07
26.414595148900162,-178.390237141831,46.77232158523001,43645.074
-187.1510040533753,-9.358335657388949,24.41044368536039,3.9906072e+06
-38.85183742572494,180.7946360990374,6.3348954913372815,8.298619e+06
-172.2744570297537,43.06738137697266,32.035489171930585,2.162655e+07
62.523113383518876,113.87639246353399,5.104800550247468,1.1841748e+07
46.510125986064395,-137.64257359365791,44.87191859707665,6.680591e+06
54.27009728480641,122.60762234351603,12.668668512322572,5.7171536e+07
-28.25049564464851,-157.54611295233286,45.20854400681636,9.962e+06
-84.1935960438463,-39.999651367034744,22.944282633643603,2.2938548e+07
-160.376257556046,-69.58737992212593,16.282944965695137,3.6230284e+07
98.9021326079241,-30.232041882647337,46.3031112249211,1.4193516e+07
-121.28081091830705,62.053091327570144,43.10301784750106,3.2509398e+07
-51.83123396399765,75.63252556023633,24.63207864549739,5.3506104e+07
185.3584139218019,25.355969773259403,24.89801867106664,1.234124e+06
-20.864946450299158,-167.12849450213582,-2.4665891479778517,8.591046e+06
-172.28947265567174,2.314693052553622,38.27605703622715,9.858211e+06
-75.76103481339001,-132.17456122876206,9.029211006194073,1.1216056e+07
160.5651678218801,-71.5180411787428,-3.1727128079543547,1.073449e+07
-42.21504657743151,-88.31489213861985,35.082311894155914,3.250606e+07
133.28601836515548,57.82269319312354,46.756488143545674,5.636192e+06
-38.15619596245642,-171.0082285036418,25.984433333907155,566688.0
-86.12496146624477,-55.47846527536123,30.388078726201805,7.986518e+06
-160.11001217643314,-24.067519281906527,32.63068144319131,1.118643e+07
-172.14536843229934,-29.072139887300978,25.593019905250976,2.4413928e+07
100.30624178294585,-1.3772300547995826,-1.315919626009677,2.746569e+07
154.07295596328402,-91.20376240368431,-2.2871626323661474,2.2700218e+07
46.0076445661673,107.36779396154361,46.49812071368501,6.5865425e+06
155.66012333020956,-97.75567937833681,-4.424911541784285,1.8960248e+07
46.16771746156877,-181.14282841862513,19.314731250348476,2.5621678e+07
123.44119142726447,-117.76019673398835,43.43024569638594,2.226821e+07
-110.45048532040518,-29.209443436826376,11.942926915056486,4.957506e+06
10.917233089042668,-188.24935991357572,44.09960049460692,188880.58
162.45374191834657,-34.604010944315405,44.72474305976529,4.4456984e+07
-13.083414981678544,97.14652410248914,45.86820310620462,3.824651e+08
26.85075997669432,131.0144149605781,47.10345539001849,1.0973226e+07
0.9189026497849682,-196.9935563317948,17.30746333564343,338340.5
-87.61976258160726,186.00427155496936,-3.1707424440980825,1.3453031e+07
-184.330225269341,7.485116585315694,46.19712422862018,2.5236538e+07
-136.20479225660836,-4.130902585228114,46.737204225187405,8.177622e+07
-78.44889729677243,176.30023207747166,25.629793048010775,7.719913e+07
-13.69249304844621,116.4761994527044,43.54594226793532,6.9593944e+07
118.7061872459144,148.2988719651991,46.311474749777524,7.98615e+07
35.523087537363466,177.44833979751667,45.684406075331765,1.6044114e+07
-156.47960398773594,28.213072311314363,10.544416695483104,4.0314876e+07
8.889183210464495,-133.99082190201267,1.7201146238337657,1.6955529e+06
-120.75899527766,-77.39576575899136,29.39201619352901,1.7998266e+06
-93.91187494472743,23.835397585688696,-1.588887131835706,1.4742437e+07
-88.99393891525753,141.9825992845884,4.312503830446255,8.706346e+07
-166.40524219839966,-32.7657687769495,-3.8287414014142804,1.898257e+07
1.9044451565749796,93.11190600568005,19.395010213676656,7.558933e+07
-70.35402152901884,-93.27838727951908,44.84276781167749,4.0198852e+07
100.21536194202673,-105.63782861818059,-3.915142475529728,1.9908315e+08
-161.88616635872347,31.803788831013122,30.659685033714972,2.8248755e+06
112.4598382120613,-111.80171850741604,0.28084545938405725,4.327027e+07
-123.36108251882692,144.03688057287178,5.62732825982531,6.756196e+07
-132.5376193907189,29.48274766778559,-1.6026806849837327,1.728464e+07
90.37715984539795,102.43046198839136,46.492964037093465,3.952564e+07
-46.09814609507711,89.93565264204074,41.215899486452244,1.1775742e+08
95.93959282563748,-65.34385961993328,28.793380140418243,9.495001e+06
-147.8387905404732,-94.11329832987322,-3.932970858296942,9.38387e+06
100.39545262002753,-144.15041935162554,43.87770046571473,9.20716e+06
42.24845487479348,125.72956299116328,-2.963851185703399,1.5799456e+07
147.55979078919353,44.53071906476163,-3.791850569704454,1.7172444e+07
30.863533383857572,79.19076136926697,24.16195351284159,3.556606e+07
-178.51423889327944,-1.9529426215694912,-1.980790631201677,1.8910252e+07
18.138069556607462,-181.02634167167753,5.263998002761046,1.3895636e+06
-79.34130671901602,-77.12554933296477,-1.8502777086769409,1.5231194e+07
-26.83471226365043,182.02519275540408,18.415125243860132,2.066837e+07
109.3047941849585,150.11412351992368,-2.9823103424062776,4.8315824e+07
-58.77512615530367,-86.87817857418273,47.01500072611484,3.9094684e+07
111.96039284664579,124.11572666675556,1.417150594187036,4.0517652e+07
-29.513396937403485,-151.16227902507578,9.917332797993282,6.7852545e+06
-20.030447977909688,-142.35614243537916,-2.0239608474696227,3.7554716e+07
-65.63618153835085,132.56657759051092,13.094819868944604,6.687141e+07
-81.70514611172743,46.11454450860202,20.837659784115882,6.784591e+06
-118.56989602457477,8.509506630729362,47.474171182935756,4.721245e+06
-112.65485826821056,-8.430985737833737,-2.417236214647138,1.5866794e+07
59.71136761434002,141.75971558586429,45.02315666413392,7.1657896e+07
104.5376728740718,-50.63300759591189,31.059589478165222,4.8683465e+06
59.68758845804558,-174.99997478963974,39.71103513249199,1.5952654e+07
-159.53971722914878,-67.125315886133,27.1714842345828,1.1610659e+07
-166.8086148575286,69.67293043250527,12.865101547681494,4.605371e+07
141.84643175380194,51.347517602360256,-0.35681551149150437,1.8928004e+07
-127.80599649650539,-51.08140768981863,-2.144457003424838,6.372313e+07
155.15335853356112,-42.535431049122565,-2.354380733422459,4.632408e+06
142.41202968424273,-40.19956730119327,-3.8938069201840424,2.4099664e+07
-169.45979259079894,61.478690153995046,-3.4068261797467265,3.5261092e+06
-94.11007842524256,-135.7140109502016,22.141857443541255,7.154101e+07
-130.3433858158217,-21.604140206706802,4.258531702994048,7.0998375e+06
-104.42877540878118,-173.23283548264976,14.905896807049583,1.2244695e+07
-127.68327586738768,-78.46559977458739,-1.8370498469274685,6.893181e+06
-100.92321636140282,-155.5308541748282,-2.838362942348009,1.9487486e+07
32.08903113436787,-149.12424026024976,-1.2550707223686284,523697.94
