x,y,z,von_mises_stress
-32.415126561790146,139.29278878467426,22.226082772762872,8.3819735e+06
125.6341000636026,121.24878720220153,34.85500999216855,9.685862e+06
-106.78949360065069,-47.673795449771234,26.155963152184206,1.1078941e+07
-155.6813197674173,62.43109396008094,13.058329636976776,1.3318432e+07
-121.2057698263684,-126.40998105578056,13.847733082710029,5.5735315e+06
79.7493073464293,-135.98557918020956,23.621855708081316,9.718911e+06
57.16120970748858,118.93232966242142,15.4319708364506,5.0496715e+06
132.60096776579928,-7.673175677127291,12.855926263446268,5.300281e+06
-169.46255383874797,-53.75816623217733,3.0032424784379472,9.531559e+06
38.98510853533122,-83.1732116206672,-4.845255388550328,1.9903008e+07
176.41035915454586,4.288674980069203,29.895596242116294,8.706358e+06
57.3105221220481,-113.51757520182399,3.923528477771572,9.55637e+06
156.70790043217823,-59.206959387093406,25.16546626342413,7.3488815e+06
170.22422754173994,-32.68256725820257,29.203326532718762,5.225393e+06
-71.65832909820546,148.33863129695675,21.439402584832063,1.0630987e+07
21.040124357853557,162.86906550612787,-2.3800723301085385,2.0276522e+07
29.919704153915205,-108.61734406070389,29.0747931180938,9.81822e+06
128.36822452102138,56.30161687625065,6.426874311421272,1.1340844e+07
115.13366399789322,23.765088843390714,30.598614904018564,1.5429515e+07
-92.36995439542693,38.39206931387747,3.625499776699723,6.788248e+06
-142.20659853809687,30.95877226487903,15.386048439846022,1.2251948e+07
-1.599171615058026,-151.59858163607413,-0.6025470184686113,6.1706855e+06
-92.6493904498419,-93.59158946412633,11.881337587846161,7.494694e+06
1.0128095337498735,-141.17111179062536,41.66708897315238,9.573513e+06
43.070044687009045,-144.23654027154652,-1.9015592112014488,1.1597199e+07
96.95541465761266,132.0659616189929,25.265970052902464,9.318849e+06
-107.14981496326823,147.05573871754098,16.14997655130277,1.7203556e+07
88.78730913695625,-116.33230027589146,43.51572194493402,1.1730816e+07
-114.60673241835977,-73.75129446044038,33.96983492455301,1.4108912e+07
-157.10050022178507,51.43907117296417,7.909395748670392,9.761399e+06
7.545670142944174,141.9627959929535,3.3875542309069306,1.1959458e+07
161.09162344791883,12.260632966648188,15.80077033588562,4.5176505e+06
155.57524849495724,-49.058888504745255,10.937850956458242,4.95889e+06
34.23747467719315,139.6095889939267,0.7198345367218075,1.3470573e+07
-111.85628223678066,-72.32851833714768,44.06415719623989,8.883479e+06
-33.960516236898826,163.77414407962294,3.6452713478946035,1.2130499e+07
122.55560329532074,-26.152927511234253,11.157829970865642,6.838925e+06
-153.4845407294101,-89.4681330064163,31.66981334358514,1.1173421e+07
88.26665053531377,-56.809746195190144,3.665434776245277,9.74673e+06
-145.00319943017055,82.92883591176229,6.190220601571808,8.413016e+06
-85.89669622534113,-68.3343145014625,21.8268987538721,1.0513811e+07
141.4468463304707,-39.662487138561346,34.998482128663085,5.698584e+06
-51.93880794793193,-81.48179088632487,-2.9629235519919965,1.2369918e+07
137.10709510277348,-129.61168761204482,-4.871631908149713,1.1136459e+07
-157.33170500477098,-17.49054969445848,14.72314388046513,1.6323775e+07
137.38529428835756,118.20265390949555,45.481289876333825,2.0361704e+07
116.90545368011777,85.17195797777504,20.784177099778418,5.7819935e+06
-108.76840717205546,124.32754225669487,5.9233995307062814,8.925934e+06
-95.1609082121848,85.27645530373792,8.175364493213491,3.5684692e+06
-52.39739480575864,143.8209046805964,19.739874424420734,1.0371853e+07
-56.08280945270084,149.5309453510596,33.03959599819608,1.0460227e+07
-83.09687045041021,95.29469993341826,31.67488854960689,1.1604841e+07
78.56244666379496,-95.87701934288187,47.208082329676415,1.6011184e+07
86.17111961372956,-119.09157135137337,46.25424439334252,1.917247e+07
-63.945305093767246,173.2038965747044,9.944807528672282,2.1136102e+07
121.23170005097188,75.0285350446868,18.4122080041849,3.4894782e+06
-125.31271756182218,60.77823408209867,27.20645950163423,6.273853e+06
117.20869506845919,-32.72044399926091,37.81229660279354,9.676632e+06
-46.16051492421067,145.97321607067022,-2.38694826596619,9.9398e+06
-169.44108604506263,-62.90307061558815,32.41719186075149,9.089863e+06
-130.85440660046726,-125.71632140875323,11.658689659962402,8.604018e+06
-160.99022447351254,-95.78367323810353,45.52678163466955,1.26182e+07
99.29322148832347,-71.91663079818485,36.0131211846268,9.288018e+06
24.073586047883964,114.64245266716972,46.968924545131294,1.7189622e+07
91.26225217767904,-45.516918030049254,20.679648602433467,6.2367575e+06
-20.160609178983265,161.29041777917968,26.715612001904645,1.1386302e+07
70.93468301175665,81.36123989544046,23.30658908962706,6.307789e+06
79.18915920868744,-96.56349027874586,32.83159587579855,1.0490511e+07
-95.58756041400316,87.79648825345066,1.263466028959927,5.628866e+06
83.86304135310667,42.33094097301611,-0.02687658603695797,4.722444e+06
-115.55255593395927,127.93326034327073,24.498435531716616,1.2837612e+07
-136.31085575883102,98.66353402996941,7.1624507572440566,8.464677e+06
-119.42888211549828,119.21603990740846,33.43964537238722,1.3351126e+07
10.797624424189848,114.21881959952287,-4.108562256648076,1.9428488e+07
145.52955353923858,-86.1155193390414,3.2350933829877015,4.929693e+06
-85.67706823472916,125.92006144991672,13.359680525127928,1.163118e+07
-138.73976644192467,-72.12027051539289,37.454331711696895,1.1036255e+07
73.538273432327,160.6733592967767,1.7327077962068669,1.4139021e+07
114.7863512145385,112.7590732296236,9.804204282978446,9.166102e+06
-66.4819077260828,-75.39651939216903,27.71959697952782,1.2872725e+07
-45.04764616154162,-115.08372356400538,41.15773817244698,8.3409725e+06
119.56496529621158,60.08000548436172,18.691906621556956,2.9856812e+06
53.313618803769856,-87.39867067616439,13.860792130375922,8.2075525e+06
66.95596072312048,95.59034639548821,40.15688958173476,1.0399658e+07
-121.06050570680135,-46.21623057633627,-4.147910591517719,8.297762e+06
-100.81481106626575,-7.015773109930734,7.609121119754031,9.894782e+06
152.6288239982867,-26.00881927272073,22.030565482849383,7.892392e+06
30.68529911374344,-143.42124417037638,-1.6629303021456778,1.0816014e+07
-158.47350792258487,-60.66107477214757,40.83216674170712,6.866303e+06
73.02524327795498,157.81013789209675,17.93153418454251,6.717738e+06
-152.36740403601607,36.94901919700109,16.14812751629995,1.4152011e+07
-32.52451360498233,-104.37080129638882,21.60166663640948,8.2049735e+06
-162.22778978937438,-58.282539558494214,38.363666993954595,6.9343965e+06
52.35245311864841,164.8793156020061,26.31839397610117,8.267425e+06
97.44931925309646,126.55079353126548,29.037206267100707,1.0167296e+07
-158.64379550666604,22.62148814331502,22.70659235429534,1.2988474e+07
-111.47544185503615,111.20807834067779,16.975370175973662,1.0910663e+07
-42.172662338345816,-169.98349592887297,13.539572656961933,1.5200614e+07
107.31765256024681,80.76080997098114,-2.2904999687992023,6.5482005e+06
137.6962514189608,19.87834826768716,37.08675461444977,9.827038e+06
-51.249125727110055,139.9202737645482,44.76628302476188,1.0402555e+07
-45.53710405283056,133.44236656214383,28.964267782047163,9.781499e+06
-159.52779159058053,80.31595668591132,24.86742993344096,1.8178742e+07
128.87899391407132,83.69388256442392,47.28669897388073,1.687235e+07
-175.08654031562622,17.690320859647045,37.67853861842369,1.5837016e+07
-16.707020396052968,178.35252257661114,32.34300690383334,1.6404666e+07
27.46917466793866,148.9988847342347,19.264976043044612,8.293071e+06
141.68318801316695,-6.0172818087151825,22.081095089197174,8.184924e+06
152.81801134277384,-55.94493647728944,13.58562483976719,3.9034695e+06
-45.426374656209674,82.84268877620525,40.40833666821838,6.4203615e+06
-136.74046214021627,36.58289375115791,-3.329146884706632,2.0791878e+07
-35.23837756884282,162.3978364621413,18.244072315313407,1.5567025e+07
-93.51046382545363,-100.62754826593427,7.904905413371948,6.2179195e+06
57.26033274014498,106.50141688944909,42.44625064067532,9.029115e+06
38.47801902392871,138.54264373175255,21.289513976318148,6.1124375e+06
-178.44660905475652,38.88987645728926,11.728436257561714,1.6392452e+07
94.12610858754073,54.058795225084424,-1.1372808605596123,1.9113802e+06
170.7309455928629,35.14753111051775,5.257392497609581,1.5920181e+07
117.12341879168243,-22.24075052098118,31.588021258031183,1.3889202e+07
-105.92404647258262,28.822719472061973,35.64227504153235,1.2069966e+07
111.14072100559513,-3.353607887163776,5.50199888251956,1.1536592e+07
-110.04581602550205,-96.33578047474947,20.434046286043127,6.750321e+06
-22.871596811090853,-186.13190584113602,45.72724000489246,2.5049448e+07
-117.70068212816645,135.85306163783582,16.916798241395963,1.6392547e+07
-120.0391540028022,-31.5310989139773,24.952264578282456,8.731255e+06
-107.97000499611346,42.407999094651416,41.93110889982121,8.648557e+06
110.58243411589194,100.16153699972637,41.73923706368879,5.4324525e+06
49.92919867029491,95.4148373162563,2.5659059839448957,7.1573755e+06
132.936591540697,29.20511212860316,18.542008120786125,2.809791e+06
-149.54545746635148,-92.15806159803077,4.152819461012109,1.5616127e+07
-141.1533382026803,-95.50523639225013,0.31772230040180643,1.907808e+07
14.780690508064339,101.25583396331665,28.564280628337578,8.484008e+06
-91.23771534403384,156.31572192090772,17.92414809791312,1.655847e+07
157.8620369800621,16.08635111005495,13.67466515696319,5.983067e+06
117.1611703069911,10.36921806639782,25.080392274330435,1.1260738e+07
-77.57718866242564,-107.92177541216023,16.316014294778565,9.200604e+06
167.44841071790626,23.83493112349001,10.298619602952124,1.1244376e+07
-55.67158689616344,147.69675572047942,10.567066476399473,1.5803167e+07
-112.80355467983294,-80.10901055561885,17.765931144366405,7.338058e+06
141.63685443598035,-62.65932364955526,12.276078199210207,3.3752885e+06
4.990364675986939,172.8130766741674,22.785828406074785,1.3511261e+07
-33.87669216246803,-145.10521804132537,17.65156313464962,9.26222e+06
71.47238264286557,103.08897706312933,32.802407766811655,1.04057e+07
-137.4819033831568,-89.81283355568141,36.949933897309165,1.1674528e+07
99.25085653825334,-126.24513610425163,-3.6421951807280997,1.1268886e+07
74.88792271750049,108.36972664302897,17.11222707442927,4.5426385e+06
175.72189661459123,-45.23784661963575,0.5304388948001723,1.4060217e+07
40.82585559048408,150.59418175157452,15.413886634702887,8.017251e+06
59.748823862239654,-106.37022176370023,5.57991794497341,9.891654e+06
112.33947447412737,-43.079170717943555,16.772068740074356,4.910869e+06
169.33087515149117,58.486398930679286,3.0083873486680885,1.5643146e+07
152.11501012519471,-2.242163073468305,23.031148423451846,8.759264e+06
49.0437318543386,87.44388184289693,45.90533192000855,1.5966477e+07
-62.633594314187725,-92.0002665141158,18.184957456751782,1.0431743e+07
-80.55111586156616,82.29707090213992,45.946839881165786,1.2792194e+07
-23.534058747974655,-103.06364174045189,3.544681029691476,6.428865e+06
-76.72523960790612,162.62000370271488,10.881033578297005,1.9288896e+07
137.91338578866646,112.9981395827391,42.30417804600466,1.0347861e+07
-75.34841187578661,107.3480858897719,31.32648583529767,1.1267229e+07
-158.85017475399547,72.0131274494596,31.629662418795863,1.693458e+07
123.78068116720726,-28.05596020317128,24.901765924797637,1.0944312e+07
-110.15987522703362,-133.35530020684263,-3.4212375251061573,2.8252608e+07
160.50606805867608,67.64974131907593,47.067520496491525,2.9244144e+07
16.264757639010327,108.17572845401912,17.781819400760575,6.724441e+06
-97.9537888130058,-52.418399776186504,11.96681973364209,9.579403e+06
31.069039445979428,161.2203292757374,8.344826226041684,9.913266e+06
-162.2330493505569,-31.24659170263078,34.921768696468845,5.551711e+06
58.130032273855754,-146.01489988341189,9.103989789133566,8.606592e+06
-0.08738257840539632,141.37670095469116,4.317272905879021,1.2233014e+07
-90.50743294598931,56.65837307290713,36.152129762664366,1.1087052e+07
120.72276002925668,-39.64526904898645,15.223755947656574,4.209637e+06
65.02232518274798,-80.80860960977438,13.203778665223728,8.2295765e+06
-65.07227450780596,-133.10029354223323,39.30695242718627,7.3655985e+06
-99.91311709139077,122.54914533354457,24.423831305379487,9.383171e+06
164.08619837842315,33.62904817817744,38.82426860702566,8.2053985e+06
148.9229655967714,28.236874182991837,38.99275905430272,5.701404e+06
50.52411140721554,96.45604477288987,43.07241332819008,1.1719317e+07
-115.71750986018232,80.6204095943466,44.673508080387805,1.0079586e+07
-19.94101740501341,185.33674573709442,47.189760198619766,2.685585e+07
19.271657842595374,181.57830376526533,14.974444963418057,1.6359843e+07
80.65047547496852,79.58723986244655,31.003981067844773,1.2385392e+07
-67.34766525716495,120.47318875998273,9.820478597553995,1.0343289e+07
-158.4823412223733,-24.852138716771464,29.304343571619864,6.561295e+06
94.18600275673839,108.75374359289458,0.23796519084608778,8.130744e+06
-88.55735120363173,-135.996475780529,0.8915801825492052,1.5352137e+07
-37.48303139978398,-153.2401355089522,20.73192495152567,6.934004e+06
-124.3953626845908,112.67925821105138,19.66315824104609,1.3312613e+07
26.107134923423786,-157.60183514765157,21.019586449980505,5.4410575e+06
81.43567884462783,151.03410536261725,6.946932805212352,4.9881475e+06
-117.00914050760156,49.682013905272015,39.565597925642585,9.480555e+06
13.086061351797582,-138.04613476976857,18.1295560640859,4.6357035e+06
-10.187118640419612,129.04258717092057,16.20485692261346,9.583654e+06
132.9292036585577,-96.70242395454936,-1.6577894091752252,4.5116405e+06
118.58710753060734,138.83732933913188,1.6373478091012126,1.7322448e+07
50.0945233325572,127.43836959293759,19.070368838237943,5.260017e+06
46.1445442935605,134.50499569510816,11.945637581858954,6.53582e+06
122.87533192666007,-34.79299261358753,47.26610247819702,1.462447e+07
106.13678675081938,131.01920571088402,26.730087075127322,1.0629494e+07
-98.87154311826029,26.496831819390337,6.645798256406844,8.0552715e+06
-106.51736541151226,-57.56583994024732,1.9366068487735044,6.6112585e+06
-84.14886378161542,105.61896377340321,14.337699373552898,7.1441085e+06
-143.6884874980234,81.29945511064676,46.293083520367354,1.8769704e+07
57.62047944185065,-101.45826337902943,23.661179018446564,5.568334e+06
-138.39067608646286,88.03302145250586,26.29366467866724,1.2478472e+07
154.04813232365882,-90.11990005715984,43.168532544371836,3.3046952e+07
133.47535204669623,-99.20442628871373,4.188074738337695,3.3230005e+06
-133.2835033793803,58.52284965201113,29.19617052054535,7.1188635e+06
92.98276588008702,-124.81574547618939,8.871714988638633,6.1591335e+06
162.45669204561278,-87.12581511951716,-3.7028161599510425,1.058341e+07
140.79486027396445,-67.73999056106464,18.617591658381794,6.812087e+06
-18.343866402392848,174.30193946498412,-4.541824491415039,1.8174084e+07
109.83121651147655,30.467040441691122,7.2334535693086774,1.0933309e+07
79.69868390522862,44.146454313717015,46.223220963969695,1.4973644e+07
-140.80009990869277,56.24569394468597,-2.1425058821278133,2.2444922e+07
124.92522682044506,-14.521047674635213,19.844233611730782,5.999402e+06
108.60196765690802,47.15197047169849,-0.8425017640564355,4.155643e+06
-100.43496320934273,47.20315000878372,7.632962649777159,5.9963815e+06
-104.94543439235713,-131.88633648456369,32.62792444382799,1.2577421e+07
-170.044765245864,-63.46692538122812,13.863398119466286,1.6972308e+07
-170.58875834739956,-3.2651455962012506,-1.5767490112582252,1.6841986e+07
-128.96230034403175,87.41352577819129,42.78720950928963,1.2148756e+07
133.29670933048004,-134.3158553206008,43.016584285557315,3.3287114e+07
45.56404750619606,170.18824641714605,-1.4244538630257926,2.1547068e+07
58.690651754877656,-89.21576727779966,41.239355292011794,1.0738055e+07
63.79697456166713,156.28906565248582,38.989994039478034,5.665723e+06
51.57255935730478,-154.8091511674424,10.311736948982096,8.080362e+06
-126.69001390085954,46.37970120376701,31.85230048866766,7.9334735e+06
121.60698565569794,-12.268274279823515,11.386093059350863,7.2856575e+06
-61.114868205920146,156.12958314096852,45.27604449243852,1.2440805e+07
-79.83088352947205,108.3731276885677,45.469333544460184,1.0263826e+07
14.330977970797221,-173.64468124697888,18.273528413346668,5.0561985e+06
-126.15013377248734,90.60017582672373,22.226438590559162,9.908837e+06
151.99761931597226,-23.532804326231684,-2.367336619395442,1.1869117e+07
-12.998824054704217,-123.20847902483862,15.416786835619106,1.0114728e+07
-54.79764491274332,-108.44081148087649,45.11507325493202,9.171361e+06
-76.95522824526866,-89.75004668748095,4.195044677369381,4.372362e+06
-76.77777814369465,-126.51031212274373,32.789633690807776,1.1206958e+07
126.48242817556682,-58.80028122649637,15.93241628231464,4.6142205e+06
171.34597289217947,23.667518463656165,-4.36891557660605,1.2981982e+07
-104.40843920310452,84.0831198016171,15.625546371182478,5.530733e+06
-131.06439666426368,-52.82801038788034,19.440316416012237,9.652009e+06
-107.04578362494907,-51.145568160454815,4.409011831446314,7.1708265e+06
6.743043369217504,-99.31852332118916,44.35286177212779,1.2836424e+07
-62.372661695199696,-89.12935227462744,34.90228672963308,1.4122533e+07
58.053314581364475,-172.28045414334926,13.227917334333002,4.9486435e+06
50.28028042473752,-96.29774311723267,22.76253895294583,3.5858545e+06
-103.13846652163092,-5.058006266700062,6.2976960713800185,9.548653e+06
-22.051348430538297,-108.8020506803557,33.64838373522722,1.1951906e+07
11.708273893159316,-140.47964072829632,30.165213586662524,1.1411268e+07
-22.148787486184375,152.0977293270712,-3.9473268116812577,1.608589e+07
179.8745294228401,19.04031555002726,24.06225799423091,1.0209398e+07
67.48869078639291,113.98912023486149,-2.917840206185744,1.7874964e+07
100.60422680252066,43.70021666114732,37.337623653894894,1.5853916e+07
9.074045831305881,-126.39304526715719,38.78452982698605,1.0616044e+07
-143.07384367089514,-16.231279491208028,31.956417440695517,6.2892985e+06
123.96618278821916,-73.39514334146848,2.1622280140997576,6.405969e+06
-25.89396851936931,-95.72068041653554,42.808247736613836,1.0625097e+07
22.936325008496453,-134.1818972920026,1.5590498320212525,8.921679e+06
-63.13689510839464,-83.14283160507384,24.480442531474072,1.1032048e+07
101.45197878974695,-23.5036000089884,42.66044765140985,1.033593e+07
159.86217293156545,82.52580916262212,2.2071412073339305,1.4053865e+07
-104.6594909222668,16.58462093969115,36.28073667565616,1.289125e+07
48.57508642480761,119.07812102411445,37.650280147123354,6.825739e+06
102.0599080618677,-90.48433380714678,35.8751630121228,6.5822285e+06
47.09658520384215,137.4190783239095,6.351743465063333,6.128103e+06
-91.39692066560872,150.40086735864276,5.052110339774081,1.213417e+07
-28.512129355624975,-134.23957035733451,29.576356161047936,9.772891e+06
10.681212655598443,128.95170131768361,30.465637956560943,8.776184e+06
-116.18215986452091,-12.91673970531889,20.98134964369494,8.424594e+06
-100.5532337582316,-56.20793230096109,5.537283136252513,7.1177725e+06
95.02058074842512,-1.8904257033256613,23.697512390347036,8.649337e+06
136.6530425552947,-1.4782751615316556,-1.6513151201946112,1.0666122e+07
65.09894926755629,-176.60958916580762,-2.6780379854660215,1.4251579e+07
-41.872174371230074,-134.21249510076922,4.219277876279115,8.351498e+06
90.56067924343768,-104.04713685812602,-2.7641571100917948,1.0345593e+07
150.69257993753973,6.958379922507475,22.658122868604682,8.504187e+06
130.47773568331252,119.64906452479431,39.47333140537701,6.0276185e+06
34.865746983186426,170.18443844300924,24.81677740161753,9.904353e+06
8.439096909970033,-129.26497167495882,35.501635303605894,1.1604241e+07
110.45683259247846,79.68286220963768,47.354997555655174,1.113603e+07
-152.20258366612964,-44.47550904292831,14.804546476910787,1.4390179e+07
-119.68229763979541,-111.17969110025587,46.39168648785101,1.1964481e+07
-66.2473664836858,-98.25661078602917,33.21467086667605,1.3523705e+07
175.52529698505202,-0.32861528048084665,0.7370168388242928,1.6579814e+07
-75.15910969325921,139.9217153320181,17.25882298366887,1.2267451e+07
-124.94936539474999,-123.4250739262014,35.18993380045109,1.3912016e+07
8.996839298949226,182.1614677886838,26.882407242896267,1.5324645e+07
73.04636021129738,93.48077098693358,22.582791216828117,5.8972195e+06
-103.13100355533824,-146.5882308963225,28.6850436242257,1.1669772e+07
30.530834132043793,127.72610794096886,36.760725346102475,6.7051155e+06
-34.10830768211892,-182.6172787966209,44.68361452337535,2.0587566e+07
130.5524867707132,-85.76448346280338,22.50594536587757,8.971564e+06
125.76165473131584,-132.2027846654305,37.32455786642808,1.4478876e+07
-157.21576910915923,12.0126090562608,6.120681986904836,9.887577e+06
-69.0452205654666,-117.87449177369069,1.6749739080586628,6.7100155e+06
-114.84462285418972,40.20243739353404,28.022749895874718,7.3599985e+06
175.89841249183672,35.518389326570485,39.04072384917219,1.3190756e+07
128.22205239143693,-120.42908842653767,21.27167674880897,9.482111e+06
-127.80833429617435,88.6617916849134,34.34196824840211,1.2312642e+07
42.028781401036724,141.8545952922703,34.1711670919012,7.5711775e+06
-115.84303800014308,-123.6671160179001,-0.9567037422807486,2.308459e+07
34.10239983120351,170.90341527584172,-4.76516641881047,3.0926838e+07
172.33222910578212,-30.898698649519527,-3.016848645919718,1.4659242e+07
88.77579479215558,-113.52342064818592,15.683299509023975,4.1387115e+06
32.708427022308456,145.2282077893915,42.983643440322105,8.764449e+06
-30.13206038959652,102.31724357200984,26.435324428370496,1.0442063e+07
31.87570875268787,108.78368304686158,13.106801971553821,6.977648e+06
136.90750507821508,55.73939565059241,-3.939458543661849,6.416386e+06
37.81822350193838,-95.55501478493285,9.733705162275854,1.1010305e+07
-7.0475396223775135,-160.67952155857617,16.617221733928066,8.2924495e+06
-168.98903571001495,-7.050827653076028,-4.70799279711491,2.3813258e+07
133.01485882011343,-51.90729873003965,31.426699187124115,9.171089e+06
-118.14673154756869,100.35425271467221,39.686329245214544,1.0325351e+07
94.37497403081545,-116.86123750111194,11.023951112994656,5.324707e+06
-47.66051599909687,-136.6419282677255,34.30143022888654,9.68716e+06
27.02580402411869,150.69149901487515,8.079636614809553,1.0122626e+07
-25.27426128348446,-164.3497603745166,7.80216484518847,1.5320739e+07
-25.47208010285371,-123.56739593751146,18.765739370674222,8.119541e+06
-139.32790467270235,-65.13380310781974,-4.064365481911023,1.3731693e+07
-134.35310866891712,-23.62267029792403,44.40179170674735,8.26017e+06
-139.17721885113542,119.58243602281107,20.144540780281623,1.8025178e+07
-119.0686968756768,-86.48834686615375,46.45097068536108,7.5261215e+06
58.39905563405148,-116.047242428005,29.59922880848991,1.0928109e+07
-59.65918566649867,101.93836351699143,27.66935737598549,1.0985056e+07
20.065366172323394,-119.23972591944288,10.996349253130026,1.1107341e+07
69.03717413495298,-116.02686875800723,18.385391919228525,3.2761558e+06
59.68436033282456,-174.67419818466666,26.293221682071835,1.3670197e+07
-35.56383475767842,-95.94378283856399,17.416279853376082,1.069044e+07
-21.891364166579706,-132.8048123313431,40.76727561399228,8.0936255e+06
-130.21843392113806,-88.26415045973039,10.89260056146433,6.9101125e+06
-18.252851827653956,-152.30207400341112,40.93725850357782,7.43574e+06
8.178036800619367,-131.48069526585422,30.642334918803336,1.1376689e+07
-82.49329788807964,-131.10726256924147,41.944784953045975,7.874792e+06
-117.54274801155486,86.10406169221562,22.0414395678391,7.5294205e+06
-124.39231871075576,130.10916902818525,17.17562720770394,1.6496759e+07
-4.535239199794518,-122.22909942670505,31.94523950870557,1.1498668e+07
-173.36126275013882,-61.60892580495973,13.959674205422994,1.7939768e+07
-8.159406708575602,161.4952342898015,40.90762644409837,1.2036255e+07
-173.79422426018553,-0.7629182557444381,36.085744218120134,1.1150474e+07
80.36460733576962,-88.98763828842822,0.8820496543436411,8.311503e+06
170.48419286352606,54.644158227422736,27.54202678848012,1.1924076e+07
27.266119153169114,-102.98905340161535,31.008503690585542,1.0723564e+07
-88.19017696527376,69.558134149041,45.24062644072867,1.0734274e+07
138.06216125064407,-118.6389288415734,6.102483367124982,5.2615145e+06
129.39697848395224,53.101278289621234,33.40319367829587,1.4407921e+07
173.43860018389427,-61.815324460361154,12.911978518845562,7.3566605e+06
-97.44880583678399,93.384706469597,29.877127332933135,1.0654989e+07
89.45328257742983,-134.50942863289006,28.111514898991437,1.1145829e+07
-66.701743458142,153.0210548685518,21.540559699428226,1.1271867e+07
-45.43853780955237,-78.93094476473333,7.691717159292851,9.091624e+06
101.85114211363964,-109.86712492668546,-0.919599602020619,6.1855375e+06
-86.31814891335648,-61.63260942187825,32.351846255779556,1.560308e+07
104.28280937182177,69.50842003028293,8.562397580879209,8.47716e+06
-91.62474339820399,70.02645897603162,13.193749398991155,3.116433e+06
-114.89997759471295,79.7715462478339,15.163966667163207,6.9392265e+06
-53.036327233392996,-169.92591769275066,40.48266557638241,8.449799e+06
79.33738988022981,59.45353015747747,-4.790796997917357,1.0716853e+07
112.84582649726123,145.0489787552455,-3.4922221392657287,3.0815052e+07
85.10424307208496,-125.10229025696255,45.807218078977236,1.9064574e+07
87.93683843815893,-131.78140987084186,6.609782411490333,7.2589905e+06
-88.3863573294477,-105.13503208022445,-4.713995024630398,2.0617482e+07
-100.46147085285514,145.1924523905111,35.5499260749955,1.0635244e+07
11.218508725630102,-103.98142731344268,-3.529091096548487,1.6450809e+07
48.361201548097824,-117.5065764513933,22.682704052962507,4.986819e+06
-111.15834589237558,-21.06428081930457,13.68575408149951,1.0633402e+07
-70.58257708494185,-87.14588286913082,12.6737416172904,1.0215081e+07
96.65166904299991,-148.82126573832096,40.63179178437879,1.472094e+07
13.546347167664804,-113.10979616104699,-1.6504280827403655,1.1531449e+07
38.98087861427237,125.81250913205048,42.19466400697442,6.93109e+06
-150.50757431738106,-69.8725205325149,-2.8051015176984873,1.5033928e+07
-147.8579134687707,-35.155278709496315,15.931531100960466,1.4038265e+07
-2.703091788973296,-165.05341335561954,-2.3494823407671808,6.7921745e+06
19.91119637420212,98.78745150946753,29.65872882586068,8.327471e+06
86.70732983679756,-49.305354203888555,0.39079016627446417,9.739118e+06
116.88749117272874,-29.246178005252915,7.112986928326894,9.9055e+06
-97.83020087241488,-8.567712022244763,-0.4384646819479104,6.0827095e+06
24.69390017730757,-141.17474271360283,38.618902510406095,9.645694e+06
-95.97309222689847,74.8170298140044,15.612231892819192,3.2881895e+06
-132.7696890455033,-125.1538798535444,32.87105573651941,1.4518243e+07
-99.35606757252296,-136.51670296848516,23.01775764095027,7.4783e+06
-163.10900992524682,44.58612494201688,5.302555026468564,1.0517681e+07
1.7258282106567435,-180.48982399662052,34.11914410944494,7.902262e+06
-89.17953276309282,-109.61286179384801,6.081351167356195,6.8119855e+06
158.3921378457182,-14.649055797794205,23.942930513986404,8.766342e+06
64.44930441888141,-166.33438073379887,19.24331164194313,7.932785e+06
-17.38510297846608,-109.2480513195623,21.252260585986363,6.808179e+06
121.22426992034889,-76.47811838081529,29.468845013493343,9.575073e+06
110.01849597329756,60.03828134041993,41.76279626853856,9.508484e+06
-126.12843610091531,-113.72336422719576,41.14710852122824,1.1267695e+07
100.9518974465426,-76.5594973802671,29.796196467684382,1.0828218e+07
84.54125910938654,-83.33040336590525,33.684472834508924,1.072596e+07
103.03039146078936,147.6687877479784,30.16010661422048,1.0687008e+07
-123.61094477745684,99.16506461774571,-0.5935651094305291,1.787498e+07
147.06412161578402,97.05293792230128,33.42196617075288,1.1664366e+07
5.696410501962077,144.4219754280029,-4.250159020559698,2.1541808e+07
-138.94169851008246,114.77272937600304,16.45510772804715,1.6618563e+07
108.42938006890586,-109.99202100015721,31.004115612022076,8.455992e+06
130.81901903236314,95.44709268498764,9.210393978579978,1.0569541e+07
87.09239199856722,-156.61776137949244,30.66264150424734,1.1966838e+07
-16.73489712278692,-155.05756754171696,9.111858450701558,1.4169785e+07
-105.66565612313589,-13.735832866531384,1.0380415985262617,6.8534405e+06
-101.7546384578539,72.81617507833948,-2.6817473265881513,1.4332016e+07
26.78846083669532,150.33183111316515,15.306621824223917,9.985445e+06
80.74100578671471,-96.5148385090703,20.35495307265049,5.208187e+06
-156.333496404046,-56.085543765217324,40.03577333591031,7.2095505e+06
-92.3434858453049,135.62078064832662,19.013165423907047,1.1808099e+07
-143.62886999145024,-56.151687358602686,4.867533129362001,8.820644e+06
-152.073808034964,-5.693112327450137,33.36817464268799,4.8452535e+06
-6.662045361739644,139.53128787440858,43.497700825830464,1.0204991e+07
60.6558715110707,149.74598808482273,27.557273905371886,7.4656375e+06
47.18620671969424,161.85926345854193,31.36306936127166,9.316456e+06
-106.34764611348095,-102.2004873807043,6.840163056904355,6.8951615e+06
36.803034554378655,107.73348146664824,40.27882680908146,8.382194e+06
-153.9569933393207,106.52931086738427,-2.0271637527042454,3.6550536e+07
110.47299251657574,-119.54689588377984,22.508105323522436,9.38094e+06
82.95693056327224,100.91672662095175,47.33515410679767,1.2536541e+07
-49.912355198648754,-169.74543451391116,17.28995749282995,1.1870792e+07
67.04221003301978,-113.0427868247772,34.928189302956746,1.0140145e+07
-42.733618542147184,-164.69391457639264,46.09135386474874,2.0561648e+07
-131.00961702393406,-31.101981403667793,6.267048420618087,9.40226e+06
-140.51311111933367,95.05725393756501,38.33537742948083,1.6297741e+07
-124.3500538745479,128.98068474361736,16.871472505259735,1.6301e+07
-50.62915095928528,171.64077292387867,1.2063384247822966,7.355404e+06
-139.45787495611296,-17.664687533727175,16.76506632451321,1.2719602e+07
181.66847675086177,-48.474530249433656,-3.613529301040485,1.6246009e+07
70.38813831687258,62.29318765676175,-2.8234372373787218,7.6219595e+06
125.20428283751808,132.48413083821492,15.270235924432573,1.3242483e+07
74.75146505809124,-84.00566824504088,45.84213966390592,1.2072116e+07
40.46988650061567,179.32709056772381,36.67701387687986,1.3639148e+07
-78.92317392251726,-77.192165103942,26.28006965585837,1.2061306e+07
-153.16468568749826,63.265477213607824,21.361284023277843,1.4008328e+07
129.7467667405973,60.717502612803116,10.949764894915305,8.918724e+06
76.7889441666552,147.53934190802397,24.146939108777158,7.418458e+06
90.55749437351557,-93.36777747493228,17.897600240230815,4.941122e+06
-110.92971448693784,-41.535937297789985,12.606300635314529,1.0148399e+07
122.81565937002046,-133.85660946022,16.62474401705008,8.186643e+06
-143.55917647305375,-71.47201535776674,18.614989796815696,1.0364164e+07
-64.88563223044116,-101.73853764017501,21.23293925536906,9.27612e+06
-165.88150701599696,-7.633641500823273,5.150363737646011,8.977278e+06
-10.474289288663442,174.00408526113165,21.51430647071999,1.5473429e+07
-94.88733632934276,-37.10203002766929,16.164847279892307,1.0346533e+07
140.13269998966257,31.876423481270503,29.910986225852362,1.3780242e+07
123.02142509263012,59.12301832334674,15.267052151663203,4.1033392e+06
5.46990534371696,-126.54869811569877,32.92250558744311,1.1867024e+07
-9.717116740730575,191.35565028388794,-4.016284296976196,1.880699e+07
142.82186081304292,-71.88750295856016,32.40858673750025,4.83252e+06
-183.8604388591154,2.551306756155384,18.162960166272374,2.326568e+07
10.150089047063744,-157.56591597678693,7.68197982437705,1.2676647e+07
29.28906842260761,179.5376466433779,25.662116802946013,1.2501015e+07
-72.77702577074523,114.14499790578087,12.00942156401372,9.015006e+06
-150.64720751293126,-54.9187699404024,38.653396053523956,8.39077e+06
64.95819559217733,-139.1163487682774,-3.8957961667173775,1.5479677e+07
-23.074446627101736,-122.78573993538053,42.67549092897766,9.064973e+06
99.5139698719355,-62.17676338865664,16.43487270130714,5.3850195e+06
-8.98752182915183,-183.51392046422114,26.154207812759854,8.699265e+06
136.3345753522267,124.78549900803,35.16166092575624,9.71737e+06
95.7688171063831,-108.17871620884239,21.8952241779221,7.8595475e+06
76.54511016743061,-126.09118597322171,22.702698089383908,8.012696e+06
-153.21005402961885,34.09608287602728,42.20681919278282,1.3977096e+07
101.05027834151798,-140.7516192773754,25.24036956544975,1.1489822e+07
-135.70165380271447,-18.86546434018439,18.4840134790843,1.1306854e+07
-118.71587687166154,122.5897762448415,8.721217610231221,1.1411072e+07
18.991659368376844,123.01663963915901,-3.852468443865524,2.0476162e+07
-114.5221581313979,-41.197802878331004,25.109604396273124,9.653908e+06
154.20641299994622,-88.19097733958677,-4.819407522123398,1.0656594e+07
-176.49243790639204,-43.54664510850296,25.816965281165267,1.6268963e+07
-140.63274902757382,-14.945081352411963,-0.2083029992482954,7.471251e+06
142.5932411179865,15.215246788852768,38.104874756730105,7.027106e+06
74.78040687502101,168.6059922158817,11.85828464876758,6.629877e+06
-134.43593504699464,-8.491541708743398,2.139575243444537,7.5002205e+06
-163.12468011892224,-72.26548508884099,36.87440640369721,8.2265155e+06
-148.62149601510004,86.07439824525665,26.69842153951935,1.5268433e+07
92.09089356633257,47.95509626299301,12.945796814179516,6.790834e+06
159.11641588493092,-24.24881465291199,3.299815748394419,1.2629728e+07
138.71981777971848,12.284594695710695,18.53100018891899,3.466395e+06
-8.230913121534655,-167.0389046871918,2.6095436439235766,9.896232e+06
138.4155797324742,9.199999434998091,39.938036862732154,4.84861e+06
-128.69040953184935,136.85218638544671,47.379428889536584,1.9109888e+07
-17.790979784460433,-144.3714932156763,36.55334889900593,8.964868e+06
-92.28301409799506,-56.44875528192864,24.329041962165288,1.1369e+07
61.6600162614551,124.7737560083807,-1.839059386200391,1.7214178e+07
-82.39543989569364,131.6129298717653,-4.850683610458663,2.0895384e+07
21.062890319986195,144.79475308401828,8.531043614461307,1.0841601e+07
-68.38776859357316,79.4825102970895,43.460205300521025,8.170867e+06
131.84741202698945,-123.28258352055407,21.191610290477914,9.724546e+06
-88.02209830024572,-101.29397324532196,5.653618336927469,5.8372125e+06
58.00672200985082,110.3975081410544,0.7932759296580291,9.377252e+06
113.18812844708441,34.991850416433806,41.650161211141736,1.0117853e+07
82.30354841779126,-104.39735595569806,14.83180472785969,4.768027e+06
84.46099421898083,55.88923696921258,15.421191439161483,4.9247855e+06
-135.6646199566266,-26.75826865626712,-0.7895737306566688,6.395065e+06
93.43691743394578,-0.8403147190604159,40.57562969468438,1.5372179e+07
-44.13533385442716,-120.11938031257783,14.250015512548057,1.1630039e+07
-125.91952755476491,42.27395641799538,40.34115541239584,9.801849e+06
-122.53779359412391,-94.15073456764662,27.82746710433554,1.0433883e+07
-16.780276711733535,138.07005790624243,20.97437955465551,8.569575e+06
-10.726816263116262,-101.93260456334517,2.142827101657871,6.556927e+06
-124.57182465561635,-62.59272359242988,0.10721783048327103,8.93562e+06
152.15230201149666,-90.81307206420833,-1.588241267377474,6.867178e+06
-76.65968444850732,103.3808645333769,7.55035433652518,6.57489e+06
174.49958370349606,-47.62270316773288,0.952244908369586,1.3516009e+07
182.5831223445644,-28.90109055026403,36.50544634686211,1.6925154e+07
-3.223546169919899,-182.7984167237072,38.65681643834509,5.7523745e+06
-110.69640799953979,-64.9247065424988,-4.744359982412879,1.2833186e+07
-165.0357853006377,-69.31779895892748,5.1737839169824875,1.2826509e+07
-34.51281523897495,-113.77370154219442,46.69085498280981,1.3520739e+07
27.216762237918655,179.98608999732727,23.33260219395358,1.2765619e+07
-120.7844705292464,-5.812204998646507,13.15153702325887,1.1168185e+07
-176.355681442101,41.23364187312583,23.00171123287658,2.050387e+07
-49.20388823953013,-83.05120691261361,44.397934540389066,1.0597359e+07
47.60964665874877,-174.02358797925018,10.55219254076192,7.671981e+06
3.5310195682741607,118.73323187627818,-3.992303060827039,1.9016664e+07
78.99525277111013,152.45873000249912,17.809179380728928,6.958142e+06
95.10644449945039,111.2098705261954,14.437240298445808,5.7882415e+06
-119.25447500219298,45.82324689266244,17.633005431365916,6.419749e+06
-93.95933195652279,-33.831948362310015,-4.395998843802147,6.0469395e+06
131.53182393599042,21.70997209408094,32.48511206513476,1.4378015e+07
90.56521003857125,-109.15576608644875,8.692201081425157,6.9493805e+06
24.841321243808466,-105.40706789632578,29.584247646786533,9.904739e+06
126.99904561591859,-81.37797186753542,28.15633457325572,9.172628e+06
-96.6922441032453,11.234556009911756,47.06643673066035,1.396376e+07
74.36323138909893,-73.58865235783068,30.542459575419667,1.0955338e+07
-21.945276453651815,-122.839537909466,19.110279332263666,7.641578e+06
-13.518885819959477,110.27208655065313,27.371039343451557,9.701378e+06
-100.66626849266913,-44.06911158390466,-3.0149413898146418,6.808492e+06
157.43704986720445,-25.840381881045488,27.17639683220156,8.735217e+06
117.75174795881924,-72.70528849306994,32.31789253450346,8.880563e+06
50.44927089558482,-96.82986706790943,35.40729121730528,1.1663278e+07
-119.29230712748411,-8.310581986693848,3.7756114036265864,8.444385e+06
8.934251973104864,-177.28964562732185,37.314579987828175,6.29255e+06
-41.97313277439156,152.15369373625816,9.877382705599794,1.6434867e+07
-77.01362755728982,53.660823382112056,44.37898732750816,1.0621544e+07
-19.732543771682202,-147.7769461851463,21.538908048646775,5.579476e+06
161.07753941127305,56.276828456571934,10.480221500828637,1.0915296e+07
-158.05613484699398,-0.2288348829407596,25.970714980062457,9.276173e+06
107.04716333276656,-97.70593041997073,25.24200343029286,9.668603e+06
127.22559611187948,-101.23867933307075,24.790965771367222,9.321861e+06
-94.32423411280078,-60.06839341656649,-0.4906318058852887,7.037962e+06
-52.15626075156737,120.45428224201157,31.20968801380465,1.0840924e+07
-12.582801555810988,-148.38690439140242,14.03996890252312,1.1264781e+07
122.60945583320068,49.87570305382101,42.168371426094616,6.418427e+06
-64.97354234728445,-88.89219064267233,16.07880254451058,1.078873e+07
-37.87080640620357,162.33490442822063,6.914705633833814,1.6203578e+07
-26.87087184598127,-134.35042224764055,7.531957820132353,1.2140174e+07
79.05754178452065,165.93693407146827,3.7106604072519462,1.1384535e+07
141.72159345981015,-5.745015627811881,9.832523670193103,8.688291e+06
110.0947666620383,-11.176089884988869,-4.369131500769403,1.0983077e+07
-84.48727930331668,137.02845345896424,21.381179924751944,9.755345e+06
39.38377504952007,-146.07904818004167,23.20696260783892,7.694797e+06
73.00602278229223,103.34241664047909,14.066753856715813,4.7437365e+06
51.5810501426382,171.41904338051376,33.83191694308227,1.0561266e+07
100.90452823759381,111.87596004955572,-1.5656322425306466,1.3389977e+07
130.799464718467,44.49874363795581,21.036892827148908,5.87202e+06
45.15330857660675,107.01394974266618,20.786323132036575,5.378336e+06
13.626194973081368,-137.33066336917938,14.201751402227305,8.809255e+06
136.51257593583927,18.43729230662521,45.80749042180936,9.513555e+06
53.55331698881497,129.9132734869262,21.51861906593117,5.3336275e+06
-158.63516627628064,-89.46355297053192,35.15822512643301,1.0914074e+07
-111.65884045428314,-85.66236543253542,22.956235086390787,8.267192e+06
-73.14143505689997,-100.66461828030828,15.824848211490298,9.850811e+06
-30.0345683467373,103.8670797881316,32.69128215427446,1.0593811e+07
4.888054211440533,-110.95397666741755,29.791513551612347,1.0269052e+07
96.91771616700208,-138.3032507187013,-4.265443803200312,1.3665486e+07
122.9551516870905,65.85087714278126,26.4330837782124,1.1842953e+07
-130.45696307666566,51.80743848591911,29.59532794761806,6.4600175e+06
-155.79762079744887,-73.10100496914873,11.305401860866223,1.2401647e+07
149.32455954511062,31.244811646249158,15.373068765085693,3.447384e+06
126.17696561577361,-109.77301403154031,42.80824529745319,2.1462386e+07
-42.05052466092013,141.31570517348376,-2.552402975614678,1.0995478e+07
-12.441549239718483,176.18905271934375,23.64521120427159,1.5263911e+07
71.92404642109403,-90.87376831517284,31.716939500064424,1.0945853e+07
37.819500180289225,181.72862080498618,-2.891155723381773,2.6226376e+07
-193.7102994606738,15.901029105390366,-4.1706098889834955,3.8898612e+07
40.02281947930348,145.1444794322528,2.323864578893248,1.0828691e+07
90.38185180330424,55.77775475575012,13.031338000440975,6.5080075e+06
95.86567097669234,110.87973328382725,22.48744541575348,7.208215e+06
118.55651020268823,68.58250521536178,40.93739952344574,8.1521835e+06
-125.92292425230389,65.11355865821366,41.98770959683904,1.0051452e+07
156.0231705266723,22.34487546709113,12.243837979875014,7.7935145e+06
125.42060824284738,-38.55489980326712,25.743180891098827,1.1162813e+07
-96.93918258473464,-25.377060662065276,42.46803484137083,1.2790175e+07
-33.70307196484271,175.20589720216395,31.762276906803567,1.522829e+07
-81.23388299443972,-92.79580275427168,26.214412797514196,1.0994487e+07
-170.1995569752824,-45.72692979537027,20.44060516393429,1.8025932e+07
-84.74566771384113,-148.43574836183012,22.7516241262235,7.664901e+06
-98.42134331022675,136.4931804733681,45.96508673710538,1.1125813e+07
-97.47325339710562,33.57257331463143,31.82047844333516,1.242111e+07
57.0213225461821,100.89224019890173,21.64934880616771,5.3163525e+06
137.28402786619068,-96.42386451463034,30.747718507974344,6.236822e+06
111.71648964843553,-108.91076294696144,11.21194823965789,4.256117e+06
-6.944310966906471,-138.90919949705224,6.477263791533373,1.192725e+07
-136.47451981108176,71.94070252212816,4.14565438935876,7.7225225e+06
145.57232048383042,-81.18780046126287,-0.5297544854346337,6.175978e+06
22.34750404064306,-146.12746812107451,40.207380772277396,9.268144e+06
119.93118310632006,-93.90932957008692,46.10911079687128,2.4074648e+07
-34.72011616332401,-152.9800839522079,13.270618390018557,1.3409541e+07
70.10533619273804,-77.0458755413034,23.005335150429644,5.475646e+06
-2.489691034885908,92.96929638310564,22.493779566654524,8.549774e+06
-88.10736600055505,-55.63522655162779,-4.340043083213737,1.0516308e+07
-166.68173555784222,27.68427108193077,11.87118102750052,1.53537e+07
-116.50604310981012,9.125843425549704,25.781913150191205,7.0889585e+06
137.36798330100214,85.99113966585799,36.108492559960574,1.0397774e+07
-82.81585502690842,-143.87606867649185,-4.969977672247407,2.594898e+07
-66.1525359785978,97.95265342409857,3.095788240501802,6.4832885e+06
20.723112063868,-105.67976559005592,16.876101932240914,6.701059e+06
-142.84388512467623,25.07717559583099,15.197018923035186,1.2660168e+07
-21.512124159963605,148.67729171726387,33.90937143447896,1.0990821e+07
-122.78856047196412,-82.64395854867956,35.069835023867185,1.3234121e+07
-105.10754242360511,-25.68718559534093,33.38111505334661,1.4899315e+07
127.5863007348305,-63.42108533935823,21.930902329909117,8.786632e+06
2.039029385651247,-160.42818230988513,30.80762895068671,1.0823561e+07
-67.77418500612552,168.11118501569285,8.380334967583778,1.8872098e+07
-115.75709616965909,100.83822958451567,44.929594247386284,1.0916262e+07
-105.95109228796642,-109.48530395715923,4.8941174767819415,9.412309e+06
-33.50703115040861,-100.54345976051633,24.481985334268654,8.582814e+06
-130.45213013790794,-15.425270705609137,32.62542602610684,9.78951e+06
110.57237274586974,-34.19840019310999,35.02920751839418,1.2779175e+07
74.63594464242544,97.58804566430467,19.42520595651543,4.5534665e+06
-54.498833689874495,-149.9137700171409,23.107947179154777,6.6741255e+06
-116.40925082238338,146.69122851038645,47.20252422219508,1.6558779e+07
-98.50135310297804,59.72951249069166,22.707684477573608,6.046174e+06
79.14298682103163,-81.71184006512244,14.998494617263889,6.0520925e+06
-76.47804704802792,68.39772023599886,11.50211376512944,3.346931e+06
54.797027688587065,-162.70751920393226,16.71564325535967,4.1289485e+06
-124.27315922344837,10.125643661530916,13.18628906053091,1.0915397e+07
17.865012755697194,140.92638565413324,46.01858667716326,1.49006e+07
-52.38961176725451,92.78099247452997,7.539966643612699,7.658516e+06
176.91386839789544,-22.519005197761516,37.33393076320931,1.4815878e+07
-19.64036526532192,141.01380121086038,11.924290037279366,1.3812649e+07
91.98178788475644,78.39280958244979,6.360746182192491,6.3473775e+06
-174.9652282573681,-39.37814850689247,10.745266157718179,1.652e+07
-71.87344146082685,-124.57049047591661,27.264582126635098,9.275691e+06
143.73489326771096,-5.500417210935325,40.64108657615923,3.8049405e+06
-61.28701556175287,-80.04379707374349,6.422188150982193,6.923842e+06
-90.20412637055135,76.73230846960558,2.0538098081398233,4.594632e+06
-52.99321388328323,-171.51688211079818,22.228074036393693,7.8306775e+06
-118.62525207262466,-80.30553748587894,2.787044254549435,9.213245e+06
88.48105629870724,-31.051804857488946,42.40298856721974,1.3049427e+07
-9.82155239198974,-99.9453720776005,32.30229304272318,1.1441264e+07
60.467467190353375,-99.99255725295066,30.0926028376973,1.0540665e+07
-13.075978454589205,-179.21609997298967,-1.263752385715818,4.5423565e+06
7.604568240559388,108.10816788638037,39.76633765567938,7.421579e+06
14.404051582437432,-143.5410290716499,14.095913305913086,8.705075e+06
-48.30623285866915,-98.5045307152164,21.98525346608526,9.318895e+06
142.6754463724066,-16.606181356497984,12.851860930178297,4.6027945e+06
-123.30283701961156,-134.4530187013625,32.540336655549524,1.4563596e+07
84.69156762299508,-54.7134278736809,-1.7444390951289976,1.0740384e+07
150.25229686015302,-64.60420947350917,17.172503854143397,5.8912035e+06
-125.9844279366427,-98.24097262018898,36.6089080263603,1.265415e+07
74.77412765658949,-163.2383596037839,12.59065608354102,5.2772825e+06
58.110727320912865,-158.10932821479116,46.37731826710636,2.4754308e+07
-106.60806526341587,136.9226424842921,41.89571338805778,7.80838e+06
-151.45331802813354,-33.460965480125196,40.36848476746561,8.2957575e+06
24.117524757647914,-126.41045575778729,44.51253862303562,1.3109233e+07
93.65119144134417,123.15454101610021,43.80137982242205,6.9296535e+06
136.47559446860782,-46.10427965685679,17.322570839510515,4.9498705e+06
18.510839358744846,144.57885265311307,43.72883600231414,1.0523489e+07
91.10906738945005,-58.66034676173478,-0.12156837257987939,9.391057e+06
147.02916563544233,-36.76255570316039,26.858716229505053,9.627873e+06
117.37707258404117,8.637048511620804,10.901710578677767,8.582957e+06
57.26242625534672,-132.4294284889699,10.768649119448842,8.05219e+06
147.1713921021016,-78.54583247861378,3.566358473815141,5.72834e+06
-68.71690025263658,128.18150994327596,7.120066103494265,1.0536031e+07
31.810568491140454,-143.86575339679513,44.385125293144796,1.4573616e+07
-5.160708404660625,167.9424489599586,5.147569016547787,1.3666962e+07
-136.72300760635346,8.15616548601929,44.94306540905521,9.681722e+06
-2.028542674265225,122.93738546790524,31.21348271009478,9.340649e+06
34.150022603886924,-162.86539769615288,30.79147513486961,1.2190631e+07
-185.29864985081755,13.627541569509733,-4.218960459825031,3.496361e+07
-54.974409138568916,150.45130497633193,28.542391961350788,9.593553e+06
-69.07397343794014,-134.2755009633134,17.464941992983984,9.454198e+06
-115.9616183511916,-129.15724400893768,-4.340390110092039,3.039597e+07
-156.30872766353914,27.616468191912045,35.77144726042996,9.863665e+06
41.36788503134565,150.53984767580516,15.99288839875523,7.8306235e+06
120.14288096327334,32.995136693490196,34.806119250316975,1.5166053e+07
-26.34517513609177,-125.0079843952514,26.444382297848563,8.1430385e+06
143.1951629316311,87.41589689435176,16.280016107321465,5.377512e+06
154.85495813785377,20.753681803488007,-2.7839213190940617,1.0973083e+07
148.50089938574325,-51.66827562514692,39.3322211862278,9.633569e+06
-166.07415945061314,36.83054269824089,40.80499634052296,1.7782604e+07
-72.19065452291775,-82.5678690720511,22.485959101274048,1.0507205e+07
124.02501821148421,-104.82704295254868,35.41239802219362,5.522249e+06
-87.40540514792086,-160.20586527048746,16.32443415510606,1.2069928e+07
-70.1548015273039,125.7822854522686,1.8668468524007427,6.042944e+06
40.82678307503636,114.54101062108317,-0.9133069830549064,1.4219515e+07
105.70853955839993,-66.15285495750612,11.344309848136472,6.5292955e+06
-128.78225324415416,117.67346108434333,46.7398408786363,1.736685e+07
-178.66873841534806,4.311855816592299,36.718838665808754,1.4432992e+07
21.675371466838783,-168.98437139479392,8.044720476042848,1.1951377e+07
86.23435783867251,-60.90535196644166,22.347754976125564,6.8483635e+06
0.6772843906125559,-134.41867291708007,13.461752781978376,1.0644485e+07
-135.98488281654588,75.96981339958808,-4.090914157862472,3.0562852e+07
-16.576254770523946,-154.4675291246802,-4.553127232656,1.4867105e+07
-19.057856965796617,-121.88315525327042,35.68497648352688,1.125107e+07
120.58251986827042,79.51682804668508,32.39779373712712,1.3880277e+07
70.17031582641147,-80.59512237397088,8.117695969656392,9.995393e+06
84.6868075945946,132.4840340496669,17.43473551268921,6.100026e+06
137.70916336211877,-3.6014099076246,16.777563070837154,2.519272e+06
-11.771739630832855,-145.5579519018126,39.7630731866815,7.8346225e+06
147.00959823979372,-39.469066052438706,29.323385946777734,8.847372e+06
95.60967754119702,-94.53882478491869,40.910848475109155,5.2673845e+06
185.7801079497986,3.3097584412738854,-1.2271092924494427,1.8264234e+07
-115.23511879706646,58.340963850230594,30.32759561711128,8.909594e+06
125.19408780237579,-36.43180851756486,13.589953355724765,4.3278625e+06
142.13367440203115,37.18836603256713,26.475647180540413,1.2142089e+07
10.04299561071241,-164.68933844946494,10.351800961566063,1.2176805e+07
-140.25487262512848,-1.6170001940872112,-4.960777399656417,1.6761424e+07
157.08661664464182,68.82728709827279,-2.098280740407987,1.0373204e+07
-95.69381150705011,-24.653049657011735,44.91808352448784,1.1595062e+07
164.25028360828367,-53.61743008045434,11.631886628939888,5.7424665e+06
56.31154941224196,128.23948751931744,43.452321634348046,7.116226e+06
-165.83771771950268,54.397403828974035,6.528111782899777,1.0710695e+07
-132.3208635336884,35.50983351278316,11.10041292584026,1.0053691e+07
-91.70889080357058,48.736131176275734,16.67004450619718,4.4862585e+06
18.749332820255177,130.5520267065922,18.974997003142388,7.2947645e+06
96.91932697667039,-140.97015605510066,1.457649616109779,7.4355915e+06
-46.36615592926344,115.62681712800644,-2.747388953892282,1.2051255e+07
-28.5394289497641,119.94111459055392,45.967466577658485,1.5144502e+07
89.07467058742873,-136.06793746574849,30.782336111355264,1.0479349e+07
161.57966464884987,38.126021393937094,29.67167581312632,1.2001295e+07
47.742748092510055,121.87397545252622,47.21544980063268,1.5426624e+07
-139.91026799891984,-108.32485138398948,15.495545664574685,6.051529e+06
156.79727695370212,-16.104342235125557,9.626914416765532,8.636389e+06
96.3374372082231,-108.89686882958279,33.33796565174844,8.1080455e+06
136.66615721410272,111.52044092096946,16.00671336256483,9.845453e+06
-155.4403530541099,-26.411851921670458,30.982039365422924,5.2370705e+06
-157.39975481851283,-32.96740468956827,40.36292614090744,7.8083965e+06
-128.8521021703599,130.2144543897287,2.244918602485488,1.7011738e+07
-100.81308252198764,99.73014506163662,0.20220952396880928,9.181088e+06
-25.230800738169588,-116.39034814338136,21.57520195604528,6.924029e+06
-102.29874873663185,-124.71277572727035,35.01456242226721,1.2417986e+07
-89.27935913542085,-111.6372017022985,46.41213140589347,1.0589917e+07
50.16679206929783,-126.70100670911677,46.405653999425866,1.7056744e+07
135.76444120240018,-9.842448892828003,15.953072359193587,2.5703588e+06
-51.44121614477021,-109.69861348633908,26.97930144933538,9.865111e+06
-126.75139238216113,107.37321892153335,38.648544580961385,1.3278432e+07
157.4018516914997,-92.27714382959995,21.201611649715943,7.8983605e+06
7.430648595845696,121.83944139040392,-3.6317814827522596,1.8991542e+07
-149.16303059051347,99.33287733127332,0.3806081323516666,2.435337e+07
85.52697952242767,154.02931998286465,32.08165359951914,8.497139e+06
-143.7869509883994,34.42947428559893,9.882541170941371,1.0775706e+07
-77.58469801149283,114.64802636873974,35.146218713232756,9.909239e+06
144.13611877147218,-62.5171081251315,40.95711651376747,1.3562843e+07
92.37420092793013,-67.58371659566228,28.018948138736107,1.0812196e+07
139.69298877235855,57.5036609487521,7.803593825301557,1.1785021e+07
-9.35007472053141,-104.21161557746096,10.96120279707213,1.2137908e+07
142.76555697188496,24.441288168332477,19.882040630176125,4.8873005e+06
92.93931219282211,-138.63983385828072,22.71958185015102,1.0098296e+07
25.33751490334396,143.50062053133377,12.400728332710308,1.0108945e+07
-126.3454274242644,-109.91632870444899,14.51721432858492,4.045361e+06
-124.7129654414287,-74.5500246461316,29.064184734091814,1.091118e+07
-104.10119990958533,-43.71157480808375,14.320105815053331,1.0015318e+07
-121.05298486355002,53.402057850781766,28.66626439310123,6.8868105e+06
-139.77179415566434,-27.55876101874648,12.351683594314544,1.2884812e+07
-58.87070603910968,150.31867411704468,25.432887209784514,8.970044e+06
-122.09782700422886,3.610830374421113,33.8322424535369,1.108885e+07
-48.02881610413726,-132.17102283329498,11.511216088327242,1.2644015e+07
-179.12222114885097,-34.60858679659742,38.841951563176394,1.0553339e+07
-137.21017301561943,9.743339822010313,8.693689403804692,1.1092899e+07
-106.17746313793343,-21.988265506119433,43.05829838028624,1.1864702e+07
-87.98965501138949,92.49807397478548,25.35518911502679,8.608089e+06
141.71484041787545,-93.45419987915125,33.94224489683169,6.4018625e+06
-13.888874831744602,-142.26719826010304,28.99552100776615,9.777278e+06
-99.05071943075305,-148.34827974019504,37.55137909940477,1.2611653e+07
126.36460539548642,52.86562765138768,21.08705524391347,5.7759835e+06
-174.27608821014383,-20.01589937598615,23.79336810778077,1.7537718e+07
43.80999090105533,149.26067873159548,5.439531103473551,7.131148e+06
-147.8658103992407,92.32894300925466,27.071833228824737,1.6243353e+07
32.345755065001214,-132.52587101302495,10.153376279743359,1.0508869e+07
-49.28969003500288,-127.01034830867717,17.07714805642711,1.0083203e+07
183.60723816198038,29.478259039840363,-2.9674885958462096,1.617604e+07
98.25159547135377,-59.61846670196809,12.166916239281974,7.097956e+06
-97.76842128345397,-35.2401563591842,28.633483654357008,1.3446779e+07
52.91109848488538,126.48209078477583,42.44974801558651,6.1465595e+06
16.075078188300864,156.91054000975765,27.15821380268212,9.643763e+06
73.22487476416171,120.57648405043051,27.571548135342184,8.230649e+06
150.93823469006202,-26.247100783010467,2.1913985946984194,1.2032218e+07
-101.2479509579495,148.92038149477173,-3.909392020067367,2.6327286e+07
-135.9617576656696,-52.339254816936716,14.476783705076796,1.1131322e+07
114.99382484090957,65.80671521320113,18.184625295056637,3.0309118e+06
142.89789479900122,-8.67129787643995,11.014380084130543,7.1835165e+06
89.05443271046437,-160.78177313985887,6.3860736320882205,8.547409e+06
15.096087894350546,-144.3786214685156,-1.891558785207046,1.0138099e+07
-61.66818630861789,154.94192357383542,12.89778965763556,1.7411104e+07
-30.08516918168192,-168.1425034838031,45.41651488564037,1.9356466e+07
-30.39247517659862,115.03375254951635,6.050281941423015,1.1069535e+07
185.7221002563773,8.499130609080481,42.15314003141478,2.970984e+07
-84.60290546422526,149.85376007941358,10.69941835417492,1.6556842e+07
-82.71214143632957,-71.9386519797757,44.11467536616131,1.0390754e+07
44.822679711948695,-97.09257041598956,8.918992829757514,1.0824018e+07
-125.94150339682311,105.20838083095323,1.8439734390434024,1.2835795e+07
50.728491544406914,-136.5452112429294,10.472167546155065,8.683251e+06
26.861790115657328,112.52123328752663,22.70715881420907,6.402247e+06
-102.76531535789552,-30.071439246182134,-2.715806383774893,5.0811405e+06
4.627880824908402,172.27617835902856,4.758128908184136,1.2697362e+07
-110.35125455541758,117.61658854288737,4.526713302610066,7.305655e+06
75.2965761780925,-113.52403267223221,22.77540332321203,7.123986e+06
-180.17923874346627,-4.627075631015657,11.980526503499558,1.8485702e+07
-145.4818667098645,63.77716056346805,0.4636458876546689,1.7490402e+07
-43.32909807599253,113.66918443952902,28.03094514227583,1.0490663e+07
76.62910179125822,153.78209196741363,5.012904083805641,6.3583405e+06
67.08172121071362,-150.05065723355284,5.417560547537021,9.211143e+06
34.466947812218194,138.1308749722175,-1.004620487394579,1.6725923e+07
8.557188755220523,169.58673382704723,16.505980600458237,1.5176656e+07
-40.58032730324234,171.33881547001278,44.002629051253756,1.5664471e+07
143.20520322829174,39.2757916027235,42.61858511088521,5.492573e+06
-160.24560691508657,-70.06064210275755,40.06905625960879,7.402294e+06
75.67812456580492,-153.35090613785565,0.9425480750381664,9.45714e+06
149.44944518665727,68.74277383378467,-2.1320979768344297,8.961883e+06
-49.64126344759299,116.8721487525065,40.41454725771272,5.2548745e+06
127.62109998212958,-13.064059150111007,45.0277199475398,6.6461155e+06
-109.47441053910242,32.28142001567326,21.014627981126083,5.5095555e+06
12.36608220374427,164.0388660054299,12.376561314267288,1.4532165e+07
-108.41703736642198,-123.0562068172504,-0.37249868416606374,1.9934358e+07
110.68398319650481,-142.2751708854782,31.35458153612113,1.0242428e+07
127.60962314382733,-105.59968485431361,1.2109236449314578,2.449508e+06
-19.65320926042503,-158.4987187282877,39.782528926173896,6.320088e+06
-108.74825774018446,-115.43409271659218,11.644940126143613,6.050545e+06
-57.51231355447587,166.01692837304427,8.956811504770199,1.8853254e+07
82.18113682149624,-78.52271457530003,15.557308433152329,5.74041e+06
-86.88875544488974,89.02822632669915,1.8308317996532724,4.5387195e+06
63.699569729892744,-116.82626808599194,44.800763914350235,1.2439356e+07
-72.34130742351046,94.68448014709622,36.910893352845655,9.106396e+06
75.7997769450389,-140.06629469775334,10.313290720461026,6.5117785e+06
22.1659329834107,-146.07742546731313,44.02544585416158,1.3895671e+07
173.68769966990692,-11.655080961899102,22.929445099986857,8.110972e+06
156.94894930459895,2.7697024733278965,21.17415516812353,7.1120405e+06
-142.29248460025013,16.664627680053997,26.260316666656756,4.139663e+06
57.76669191688228,141.4643503041744,2.8273582136397573,8.594416e+06
154.6739599915918,26.42404290882294,13.869112580032489,5.6932475e+06
-115.8637432374694,-119.84567736522699,38.78859629718541,1.2090106e+07
89.64752252839082,93.36783438014544,5.091143518509908,3.6441738e+06
-88.3078240444334,-89.45813075892737,47.340189138039946,1.0248766e+07
150.43390945345857,82.35578020917268,25.84540680950543,1.1163681e+07
-8.543201058778891,-166.22224627618576,26.372328291201715,8.52275e+06
-105.73828245872762,-136.27659640263178,10.785714283627376,1.0153177e+07
-101.40610936319523,-142.21270310383258,11.550136037050741,1.1044879e+07
101.4093047395272,8.506937095894159,15.700670979915174,4.700179e+06
79.15340458069767,-62.98041247699748,28.032785712637118,1.0090344e+07
8.240833866485218,124.68029235021459,30.959609490813445,8.848483e+06
91.53525356119002,159.9889166112648,1.2663644558962568,1.8227892e+07
52.28578111810768,115.40955126761678,32.797593545999646,8.384232e+06
-97.35205153576945,67.63822151621793,32.96705897638919,1.1519525e+07
-91.60209311653409,-84.89959268152396,23.442497719760397,9.765674e+06
65.1627415407894,-107.72962320822529,4.639518644932804,9.380076e+06
55.90291316571921,116.17963736740579,42.2966591235424,7.2494565e+06
-72.7156936871602,139.25083288328653,47.23951400436349,1.5646464e+07
-59.071533756212744,-104.78627283361348,17.724501797003164,1.0106324e+07
-114.68156242561633,83.46680261426098,31.541984209775904,1.0477032e+07
-26.36036612443942,128.40319102271536,5.713732406813463,1.2102132e+07
108.20425302285526,-66.43803491122858,18.510827207705223,6.0945035e+06
-35.21610951052162,-180.80662475340702,40.28641624749101,8.534564e+06
103.97004119131736,55.34678030996943,23.5943692388561,8.3632415e+06
-144.64359444208412,12.462041798695623,29.795984895682736,2.7386792e+06
120.71395536539961,26.82765372172855,32.70757563658599,1.5552107e+07
-18.35294754586809,164.21647170636544,-2.210379889263037,1.2600588e+07
1.0036173023690083,-152.7133063179757,15.424271406738896,8.62902e+06
-40.639512307316494,-117.7613253022618,2.704562853438977,4.680194e+06
-178.87477232408165,18.77759877394442,-4.625526543794147,3.5644056e+07
94.25992245079073,-90.48757836648709,6.117173856520475,7.7972445e+06
-8.08338818479001,139.55588554632948,-4.984188849427873,2.0688208e+07
31.61423016383037,-105.82627900808589,-2.942006434680494,1.4900062e+07
51.07206190241067,-95.28752506620863,27.29984426047482,8.106409e+06
-132.3183239965868,-34.56841549438221,8.744962081052295,1.0672507e+07
-123.49334760507475,116.4057881394885,22.126999634513954,1.3376043e+07
-94.78468713962815,47.44981181518261,18.62938016929698,4.8865705e+06
13.278459358463437,-170.06711585353526,37.62606038527055,7.208364e+06
-0.8651864617505112,-166.6309790424928,30.423884419699327,1.0437959e+07
5.474573556827352,165.85626663746956,8.28402903612511,1.4693111e+07
-60.61964945264949,-133.43907920686573,-4.322465790617731,1.8849302e+07
-105.33448835152836,-101.20224934384332,41.577643153678316,9.947712e+06
-107.68413321029423,-7.500243244718434,37.03910297581001,1.4223762e+07
142.53171790497652,-23.9887985835841,42.65456069890017,9.181817e+06
59.596806999594776,173.244569142668,3.3156615198363335,1.0201843e+07
-100.28371639625838,48.329990795993666,11.632481269486885,5.7355755e+06
102.51860342145828,-77.9386221705658,23.855252226574017,9.097273e+06
-30.5076935139017,106.43079587401634,45.5227353838704,1.4819286e+07
-93.61637658695781,-123.83635130862748,41.433478608922876,8.894665e+06
-28.54871441189144,-133.0476101815019,23.74849529161694,6.430306e+06
94.45205076248595,52.18616011695607,17.997524940478495,3.3071318e+06
109.98436298478691,153.30026904169642,-3.475619101392385,3.3359834e+07
-162.59200629138394,60.8047384930486,35.99844090615095,1.7869928e+07
25.747777287791024,107.20947823810882,35.17512997589168,7.817875e+06
-4.180508409180419,135.23578275153653,7.6458265737025375,1.2609029e+07
103.16922981040987,-40.937581654883445,8.440579378859095,9.370632e+06
45.17039048652282,136.37646695630843,0.4407842985947957,1.3548864e+07
-102.44360671177812,100.74055519130371,40.5660101860156,6.7606725e+06
22.99263049948354,-114.57585023154508,14.748361084559232,8.232821e+06
-97.56832051688109,-75.63258335432872,7.720026785342611,6.5315565e+06
-134.20657379763625,73.95270568485438,37.41349309210306,1.2260793e+07
-63.91684598019657,152.75511586846767,3.4593170439390897,9.819061e+06
-141.33853437771745,-19.142482678457583,10.013436582527135,1.2417156e+07
-58.21470114939876,90.6449752015132,47.158804358223755,1.84978e+07
-125.02914401873709,79.72967819129974,6.297842024439539,4.1555685e+06
36.05356444883117,155.70000655735726,12.333119073162848,9.446195e+06
-61.00994432057462,-162.86523896718003,14.856086126091354,1.3930253e+07
-65.19851429751259,-156.0298973382803,8.099523673102144,1.5379805e+07
-79.45352015905667,-106.33285203156619,17.47096495670497,8.864814e+06
-138.32013326677858,-57.11979885006239,4.224710569648339,8.3871175e+06
-72.52632961729648,-103.42741071902725,6.334816948719614,6.401386e+06
-112.32238614307039,-56.06452997321304,24.645896647033467,9.762867e+06
161.72574892407937,11.628829415960155,23.79072884719777,9.267052e+06
120.49365678973982,65.4698327326422,31.011683758919602,1.4541027e+07
-116.44027575604116,-93.16059838577911,36.56130993038659,1.324289e+07
-92.861777149735,145.9569316971536,12.091401751087481,1.6305316e+07
137.3316631489139,-118.20804940012341,-4.03357965593572,8.45197e+06
-110.92426920109331,140.17647985075087,8.452139822590377,1.4266519e+07
109.44528225934336,133.07217235257104,5.203820897731417,1.0583291e+07
-42.53787020428064,-179.57364494067937,31.620899407400678,8.312701e+06
20.10444201275584,168.76817329395084,43.15444697850015,1.5022921e+07
120.53648882276843,69.330964480322,-4.383385349404374,8.931551e+06
176.49798528119567,46.398313019911626,6.506544580182735,1.6000682e+07
102.03393105977028,83.51244904695864,14.12959694379647,5.502101e+06
-66.85848591001826,124.68362273849863,17.30699768695419,8.739136e+06
-117.45474748791374,77.1716836361968,42.26909425861641,8.768616e+06
134.72639001568268,-16.947119819017956,34.69864242510194,1.0179741e+07
-135.99133619598405,52.94360567095967,19.983440030769568,8.747714e+06
131.8628491044085,-69.77503312894663,41.869762722023516,1.1573867e+07
-86.73556736123574,-55.059191470926635,-0.62297459137684,6.467706e+06
-66.96885223680681,-164.2666178618296,7.1545747337450365,1.727754e+07
3.3211069208003323,152.51603774339605,33.050210852488796,1.0838162e+07
142.7961190482821,-111.34840801453399,24.73970098904522,8.840755e+06
117.96003778728294,37.35686944543889,1.0816537786381,8.866879e+06
83.61663268001973,-152.61674912536276,44.93570666521306,2.3528704e+07
161.8434623707863,92.85296621556552,-0.9788112116895616,1.4484114e+07
159.77954320400607,-5.966841964117862,43.51929912443902,1.8636328e+07
-168.1513839267947,-48.383587000343425,3.340053671330375,8.57374e+06
36.14734079055813,107.06284115938433,39.44284629501954,8.200645e+06
146.21923806748305,-77.08068702522799,35.816805232673005,7.0150655e+06
132.04851666881285,-47.12971557805611,22.118322731213702,8.802763e+06
164.61694890181428,-7.009757970256032,26.488362050007307,9.195511e+06
-65.94138480819808,117.38546664615107,41.819702479151104,3.7941365e+06
-168.5074146417551,52.67431921344342,7.679185036960541,1.1120555e+07
-0.66925814187519,-147.7401905504655,20.930915956543508,4.649397e+06
-167.12779285696806,-35.53922050814339,8.090993191272434,1.2574417e+07
16.384964167498026,125.8324308653509,35.56476324978451,7.5830495e+06
68.21218057590471,83.94376020447123,4.08915770001417,4.1578545e+06
62.581565496758,-157.5247939310555,20.859152506057466,8.3136285e+06
119.53106000621017,-128.54656995604546,16.457540030757354,7.2742595e+06
102.82906070284554,-124.64196104582395,47.2625518747978,2.9309888e+07
-123.40281592135733,-61.215274314116726,17.786256037925874,8.906818e+06
130.2729788325192,40.080152961896744,34.24900439822918,1.413927e+07
144.89103173985973,89.51446001027233,4.8127612651821865,1.2747372e+07
72.64816607069878,-137.63470312014329,14.807866602150343,3.6520205e+06
71.07584827831437,-166.0784814447355,22.085627068751826,1.129641e+07
-23.380519564478334,-124.31162687843447,12.20950144240112,1.2376716e+07
-124.20022865010662,136.5403713565367,3.0202208369127574,1.5406297e+07
116.89940083950995,-68.1679576029139,4.638492862733568,7.43524e+06
96.54629477529915,-81.67094482917538,18.7615643453601,5.716085e+06
-140.48056172412663,-74.63744184025222,38.236860608092286,1.0563422e+07
-10.275759417502798,-102.57847359156287,21.057041545610264,6.621857e+06
90.0953847596167,-102.56043136046982,41.79210283297108,6.5998635e+06
-31.00971706364004,-129.9781896533786,32.45522745585916,1.0767039e+07
111.48566586769364,94.853893999293,34.07572508954902,1.241457e+07
52.84383512842572,-180.424601751245,-3.560945367634225,1.505521e+07
0.794338726477008,-143.12914780804005,-4.53854134206832,1.6911094e+07
-64.06216372233206,139.2491936768787,30.618830399308337,9.770338e+06
-114.34800808466598,133.1028516032792,1.748411086043786,1.3675325e+07
-17.983725649235083,193.83864899849357,-0.6109118226017487,8.803013e+06
-27.876338047039894,-147.01175922768041,46.73632865849358,1.8812264e+07
-101.06596230351737,117.008631276712,13.52911891708441,1.0904409e+07
141.8155250616428,35.73413823074122,5.539929347558917,1.3109924e+07
-128.6699171562208,74.14931624775807,25.455070881188476,7.886551e+06
-90.16890947078463,-96.33782627773493,26.02754266561542,1.0429941e+07
48.8179191648955,122.56110995066864,15.889806614247933,5.5936565e+06
-19.84645317838786,-145.89069051352786,29.825989106320932,9.788238e+06
-77.79201608510226,-126.30437590279557,47.10178490212061,1.4639533e+07
51.57890116086361,-169.42027815562435,5.455776933792868,1.0143867e+07
-122.99674847667004,-37.847231740897115,35.70721517919059,1.356049e+07
-73.48422858417187,-131.09493879378795,39.71582494787299,7.772407e+06
10.549849444117797,106.29018300776578,41.51594128789858,9.065254e+06
-57.389246288571,-99.39474209892727,35.82626838975467,1.3040336e+07
-147.04559845877355,58.728636429509095,0.49712241925837475,1.7213046e+07
-158.87256992200668,-74.44117352262691,28.757695424910334,1.0510194e+07
117.66068579545411,-96.88291037560974,29.400690179902497,8.815848e+06
138.40473816631203,-76.85793822349555,7.7598093400342165,4.267407e+06
-92.2655101714319,-17.784024913856513,46.26149175481996,1.2482142e+07
107.28907301103709,58.02106031395937,28.758594559997917,1.3627144e+07
27.324978514980813,108.10125222741686,30.490629637418174,8.1254685e+06
9.427130378062742,151.03610280751775,5.37762932169562,1.2003475e+07
0.6337373315170112,179.56349709311365,-4.683772772812122,2.3334984e+07
-131.82968705048467,-66.30809820105807,14.985865509729255,9.312466e+06
115.4802756871549,56.06548560260075,24.00362084483555,9.295972e+06
-167.05469711455305,-27.98153876483198,36.47823908687215,6.569447e+06
-52.61436693368031,162.81555764952225,42.518204028251276,1.098033e+07
140.23961309331503,-28.75247710958467,30.42522241267003,1.0559328e+07
-100.98206754599497,132.8865345677214,39.96592364550305,7.275944e+06
53.90649236366182,88.48961555954929,47.35825040667918,1.693478e+07
89.90103466524192,58.31434327932641,27.30841674861672,1.1380201e+07
-147.69685704129657,93.22307160037138,5.6334617177850195,1.0733594e+07
-57.25304695983678,156.44287333758797,0.30144215158180443,5.9205895e+06
70.35333586850447,124.29375647023211,-4.017320041286967,2.3660994e+07
109.76101114550767,-16.974590683030357,35.17857646151682,1.4414593e+07
-98.67315695355248,111.07075161248343,12.563033131244111,9.443203e+06
107.8753391467901,102.18806274994307,6.618776386387808,6.94643e+06
70.10985036145843,130.8544019659637,9.049872644201292,2.3724202e+06
32.67093233546851,183.23859269827562,45.425266926004916,2.3525736e+07
116.8269825499674,97.3020522934712,11.011109861798676,8.3038225e+06
109.93967013508382,-141.629080672094,6.037349342425697,6.802745e+06
119.77999382012241,-134.0249573681977,36.56076077062704,1.1621518e+07
174.6730806998877,-40.106573152783824,20.236639699142803,6.925644e+06
-18.772826332014347,-100.70468366606566,26.230336347696888,8.274288e+06
-179.84968863449285,25.220434544756586,39.97644357305532,2.1064408e+07
-28.01021893350847,-151.08016906153586,47.05427956080427,2.0684296e+07
-127.96956042907199,-8.427912301405371,1.0743948771141503,7.235238e+06
50.898445799645344,-144.68795342806757,17.016320297211784,2.768425e+06
76.73159009038335,140.14020202210395,29.11242835672231,8.323705e+06
91.6997283495707,51.23884119032854,17.358979681016333,3.5671475e+06
-4.274752859534743,-122.90107023378324,47.46676756963876,1.7941072e+07
136.9532423768531,-99.12235699539056,37.74350720949694,1.1483858e+07
83.75545202135237,94.3096634115534,5.166889728236367,3.1345515e+06
55.87855583426949,106.09170344602158,45.62678955054735,1.2349143e+07
-72.17732719811525,158.93366804067824,1.3645215706754346,7.6946035e+06
33.49267690968625,-89.24345758361825,-1.1821765962968063,1.1420774e+07
-101.98791114570417,105.81017925203786,21.781707125457935,7.7983675e+06
22.303547425615903,-99.70105303214885,8.09056084663471,1.1457487e+07
-23.98074491130592,-182.63598504764778,38.364725455895,5.338896e+06
85.55757783381267,151.67679960531177,37.933310702834774,4.0465798e+06
-138.34328948519425,-62.191866876927406,20.933854560943303,9.682938e+06
-89.17534016563096,113.99942999907671,10.372456616135622,9.089341e+06
-42.13613532443148,-162.37163193749055,43.436323555385215,1.2213999e+07
98.6642831111779,-24.666133188636678,39.36250274968589,1.3368854e+07
112.63887489767727,115.77757191016036,1.388779650328584,9.867355e+06
28.187304850698414,-109.9609419843016,8.855455434469656,1.1380198e+07
-98.26792558158294,-52.20989889807277,22.425590038244,1.0282174e+07
102.79114653082239,-35.024611731876035,-2.820758779750757,1.0983466e+07
45.86715425344923,165.06944041415215,2.6111702258107785,1.0681102e+07
-36.914038218914015,170.17191918515846,27.76569621740229,1.3174981e+07
35.88351989441429,143.9572229071021,2.3021852264301668,1.1092617e+07
97.66039816657087,-95.30246450485605,11.387410767092188,5.871261e+06
-141.91274157788874,-55.243638194775365,11.837724751675601,1.1321369e+07
-91.81628657630418,82.43907089897016,17.05656241658601,3.4586315e+06
-142.23756056056442,0.21321334135410552,15.03779678953327,1.3480512e+07
-68.07170716143943,91.47178832102315,6.917894749276779,6.1166645e+06
-173.09601010836718,-70.29489938007387,-3.7910971305766035,1.8167872e+07
65.53035297854024,101.41802986534553,33.63417949893767,1.0241551e+07
119.84339203493317,34.53319918082164,-3.6736183521531944,5.0120595e+06
136.93024798344595,113.34986122220873,34.180212594244644,1.0774735e+07
-140.70442360907128,-118.66919324960672,44.64941425367452,1.444732e+07
-13.068133475337135,-100.03716427123122,14.85090984675103,1.1092523e+07
-172.07046605403212,1.1600581763062223,6.1939213095065115,1.0337478e+07
-125.66103280628474,-92.7948167629228,8.079953291346246,7.6010565e+06
130.6068818787449,-37.37410059140669,46.46524617711356,1.6227314e+07
-136.87380550470823,-43.78704143475724,-4.8178815154336325,9.965877e+06
-149.857643131418,-51.82262247972841,2.1437494088933073,8.066696e+06
85.2153269424341,-93.64600641726297,37.455052128802826,7.86612e+06
92.17758892351935,122.24187181668242,7.867165872223454,4.5994735e+06
-126.63274386667233,49.92365247242506,10.287514579902947,8.007288e+06
-89.4797018487342,-151.7556347476578,29.15206964432941,1.069085e+07
137.2482879498977,108.31971092884925,37.129013551790855,8.137354e+06
-63.7559151459823,-132.31011644444908,30.34373229683893,9.971346e+06
56.12585009293116,-103.15201817788018,20.93990079011972,2.9826038e+06
-75.8501676212772,-128.21922162026232,17.238290051917037,9.020502e+06
40.70973435051238,-157.3509339317302,1.2656885935300963,9.443237e+06
125.42321078850784,83.09154680309973,5.0093686830063575,9.558249e+06
-129.43576097208205,55.68373427614671,0.6234196125108068,1.1925575e+07
-113.27498947397405,122.51878405599912,15.289992874138456,1.3412393e+07
-159.10044229726074,-89.65350528654632,38.98617732681916,1.0007588e+07
53.00453918489074,-101.12075665469611,22.626805674426638,4.0393672e+06
128.3897495924685,-5.712249653714622,25.00315117716566,1.1196517e+07
-188.00775581906996,0.904475383404474,-2.2239548932323454,2.4726114e+07
-81.7024805018538,156.08597292891312,33.132589517652086,1.0361458e+07
-83.0227093360135,63.83731630971471,43.61350324235239,8.246655e+06
5.077305200520868,-137.51678912098328,30.46551232818831,1.1261591e+07
-46.7397313101566,-128.13842666786786,10.134681636773594,1.2278143e+07
116.41273942618602,27.228405861455684,38.372244257314186,1.3301282e+07
178.30153069485965,1.7570367790584385,-3.974660336537197,1.5685545e+07
-100.01761274333951,50.62675181637935,26.330454680251147,8.832214e+06
133.77973775499544,35.15803561402976,14.330252509861461,4.6535405e+06
141.30893090676625,-24.470284483051074,16.010230657519937,2.9781138e+06
171.52735259106618,-66.22550426733733,32.16672104394687,8.035667e+06
-4.899576619394878,-173.83436760925193,-1.333164215200638,4.3474125e+06
128.331436019205,-13.624518550845183,2.9792490634144473,1.1762949e+07
80.15983885791371,-149.08144964894504,37.414040044361386,7.7134985e+06
-60.770173095177995,-123.84558526652638,29.49152015353522,1.024759e+07
94.2508458065742,-108.2652741985445,5.506880951849567,6.9597565e+06
-39.405256978231535,179.03912298068008,11.34538713379174,2.2537558e+07
-142.37232325531588,-64.91983887116234,33.00910097707989,1.0043287e+07
16.839458939400117,-165.76945126873576,31.1120751606377,1.143242e+07
56.59283387000551,83.1705960583057,15.710501935443943,5.2051275e+06
20.60162244888889,156.0492967268383,35.0981925767249,1.0217239e+07
102.94494218243459,-146.54367829503715,14.407749569159655,6.3212165e+06
-124.03129571438156,-56.46932712408786,0.5222522007048974,7.7792825e+06
-180.54270850082307,-39.00775327578029,27.541143429558865,1.6065396e+07
-104.08501205595222,-131.62469369992036,11.813120276776491,8.604901e+06
-68.67779946196114,-117.56083019005237,12.342739024528047,1.0543793e+07
163.16014734966063,-48.19432678484077,30.00975853569326,4.3694755e+06
-42.54904595755207,123.55361131756712,35.94214436071398,9.141057e+06
179.15933781561733,36.92565270293127,42.879213013496205,2.5017706e+07
35.14717534777364,-145.71307574640934,31.665178858102294,1.2137163e+07
41.674553480674035,-149.49235598029992,24.19038656087956,9.170839e+06
-124.32655648584453,19.15656740973094,14.725413450932304,1.006635e+07
-102.7445090416637,-68.58959979220418,7.395963875526042,6.8942585e+06
77.16480922238668,85.96202131948382,-3.5658828735259456,1.2728747e+07
-98.74826530249013,-154.58334832666037,7.87917987963141,1.6729953e+07
-92.99194451822257,125.66951108397677,13.670693919598836,1.1996267e+07
136.12170982632438,-73.5713226603219,2.181001341800555,6.080865e+06
159.87613600308129,-42.54253457436096,12.922229603330841,4.696761e+06
47.870588824430484,-123.74130401669183,19.99126380382663,2.5569642e+06
-8.45123221572527,163.18984216652223,-3.297948599846397,1.7014382e+07
-64.53477566240284,149.54419167865348,-3.485242840368375,1.3109353e+07
82.0198424080034,95.94525272082876,1.055841888944239,4.2644575e+06
-163.12571753725734,35.593176383117395,45.233565060895785,1.9149052e+07
-154.96819059984483,-95.5918501560411,14.96808005854995,1.0944711e+07
-162.33764217043176,-40.09901384366961,3.504074540898681,7.4937965e+06
170.58284286528732,-29.693686203390882,-2.310408415871188,1.4356881e+07
99.90655793860805,123.93373648638072,19.10433421720568,7.2992775e+06
-158.74012776568213,-92.0939704373667,-3.90185882443682,2.4977476e+07
93.36741437611619,-58.78000755815083,-4.628300323877943,1.4647936e+07
-111.99769045942145,97.10596321683818,5.679790482626036,3.666141e+06
-7.24806977751453,-113.38011790717614,1.8089684604014251,6.8260645e+06
148.72475481463385,-89.42926979275137,42.780282475718444,2.821154e+07
127.49907720732234,-16.961258750816114,3.8299197915648615,1.1555154e+07
140.99476765772306,-11.573804664153727,5.192088899383201,1.1854973e+07
-130.51811261439468,51.49151121922038,39.13107007972473,1.0353312e+07
-136.1562289497368,27.89114721031916,45.653108053544585,1.1362107e+07
70.00989120179935,-91.91234294607051,28.92207144453895,1.0028346e+07
-52.05613833061423,-109.30907815407203,20.50694347497535,8.946522e+06
10.022681630281397,170.88179413597612,26.03117395232294,1.2321942e+07
-154.8453535636665,51.24813065870427,16.487250332155963,1.455434e+07
4.568565362737587,105.37932389019835,40.7954631345881,8.2443945e+06
143.3613399467157,-80.54299249256545,0.021887949954946802,5.847049e+06
-112.03758850570269,-31.035720454290953,24.06278966023165,9.370659e+06
124.82199856706137,-86.4828561051988,5.409283479552379,4.8048105e+06
-129.57067339514902,-115.89556267434808,25.02179913307511,9.277221e+06
120.69013020754528,-27.792840685655932,4.824266793145468,1.0709714e+07
-92.89285055043806,84.90177996495237,25.275044101307238,8.341771e+06
-37.0503592566987,136.886119926942,-4.686527440452094,1.5994855e+07
89.56678000777742,-160.22574302972254,0.2129394844436888,1.0451853e+07
-75.96933309425688,94.9758103673575,16.714499926955416,4.2798855e+06
-85.45376898023358,-95.54558473655707,44.71573763528615,8.2288265e+06
14.466114133157589,-157.24333510987356,22.694229258357595,6.4801645e+06
-0.1897780926416317,-106.55767990383235,-3.5859405932277895,1.6286902e+07
171.6598168083529,56.80641406744752,26.154936569288115,1.142773e+07
19.395104400197482,-156.60766927513933,44.69067947597471,1.6862448e+07
-31.065702044531744,-166.80406988360122,7.764908318519027,1.5983287e+07
51.45303066159937,137.60138171349007,13.376472535486554,5.967473e+06
-52.00580426929756,148.03825995451837,-2.6918693724327576,1.0108671e+07
-82.93404896811971,150.1562038327586,1.5784852178361846,8.3699335e+06
-106.25897243493742,-38.085642463810245,12.03838331197636,1.0210953e+07
-64.35882966255005,101.92979215699,25.312990355009326,9.404311e+06
-134.1191168501191,119.58740297080983,17.57142597549696,1.6633419e+07
82.68091975415587,-111.14364524771058,21.988400267176203,7.006316e+06
-75.60227282968302,-118.35553058193202,33.735656279268106,1.1904316e+07
77.0610132559869,90.05002442919363,6.833965165725394,4.5397215e+06
-78.14066512981262,-133.05794805615255,29.490575674366056,9.988031e+06
74.64069133151287,-80.84889473621519,-4.554067617547608,1.6463842e+07
-51.81949338479757,117.94300060217557,10.90966786417961,1.0223497e+07
72.95912310915435,115.82267518692908,-0.2243948763245923,1.1127645e+07
-29.74344041169715,95.62126118642072,34.878309148043826,9.351429e+06
21.643881976590734,-110.74918375544698,-2.159820362726811,1.2920925e+07
21.827506811031043,177.44760099248498,30.845616317636754,1.3991607e+07
108.67241030481381,-130.72511816591899,17.41203654085969,7.060433e+06
-110.04072573790559,-93.42564142173356,40.040189488129336,1.1689162e+07
-47.521595839563616,-131.01294337205388,8.942755828753567,1.2075778e+07
66.6179890462376,-95.74972911011174,-4.5206598838856396,1.7182116e+07
-115.94597884822718,2.656227220671525,23.042172895478895,7.1217825e+06
-116.51922035010527,-25.491969861716367,12.511037154829339,1.0939198e+07
32.48144188768515,104.1646104794276,2.710143239569095,9.726858e+06
-47.69923552892374,-116.75269192118014,7.583922567206072,9.994094e+06
53.74258370888637,-93.4003226406762,12.710791398172962,8.743592e+06
-116.14688431128192,-95.9265299602865,39.61046270394885,1.1686796e+07
-146.9040675903125,48.9150632968676,-3.013059163842107,2.590802e+07
125.30517376911467,99.47635645593846,21.26781265354363,7.3756695e+06
156.11358821558997,30.269918512666067,18.338517661464046,3.6939875e+06
133.47775707603142,10.293503152785405,43.210809761378194,2.606579e+06
-80.53677881432621,94.33148440861396,13.185216306673711,5.131167e+06
136.3566585964346,-104.83881540953392,21.744956321329703,8.948585e+06
-126.77328743484203,104.81186664677237,6.67034007826423,7.7114025e+06
91.351518495282,-130.84719577561597,23.99421184616421,1.0042309e+07
118.90537258018317,-127.54435384126413,12.109370044286067,5.2068965e+06
-22.814738519748857,-161.05439417812022,26.240636763126556,7.5544645e+06
-142.39222658415022,-60.24890457179143,40.17923689403175,9.33732e+06
109.62547147679436,3.2069792029997477,42.477262256540925,9.756435e+06
151.46409383863477,88.17231879339533,11.57795922446622,1.0537353e+07
130.4165359038431,-58.484313983495724,23.762767583027113,9.665426e+06
-86.66940014021213,-60.58852488928434,25.149786570012843,1.1989562e+07
128.95293892999808,-101.5457529320912,-0.9770211355506752,3.4836645e+06
59.26251191926923,142.2352233570977,30.677450765060954,7.746739e+06
-117.81657234909368,-138.65610397840783,6.620634176789487,1.6300854e+07
177.47557310766916,23.836289663154446,14.446463575554727,8.680268e+06
51.697640485238026,137.88569946973394,34.80910342703216,6.9048615e+06
-165.91097287399762,-83.97071641870357,0.037150395554537696,1.9489546e+07
-157.02198417641608,61.72323928056704,0.333404199068398,2.1245938e+07
14.993732061013986,-118.15071708366847,2.370845019096135,8.804352e+06
-12.055578816986753,-171.99657977074745,30.479665455350172,9.467009e+06
22.45411726205444,-169.3117255735471,12.57471634238134,8.883162e+06
27.33297657289694,-144.83198178768174,17.77200439498785,3.4427755e+06
-115.37540039825194,24.085719257826668,3.9505138245268623,7.7811865e+06
-143.17122546440845,55.99711270665847,26.83382957126293,7.9334245e+06
168.51511890666364,-51.92059841800841,31.505181967612998,4.4216825e+06
63.241800887558384,86.88237046706877,-0.0007289153942960368,7.1729355e+06
111.16378292501798,36.501580291880316,5.208722288492428,1.0883923e+07
127.93870545132478,63.14876240271394,45.013252420136745,7.114616e+06
-104.79829260901887,-100.62171495503583,1.0965186830789855,1.2037863e+07
164.35355026182992,-72.51319348474988,4.455600082660017,8.3878275e+06
40.96512600687757,-98.92113258563944,42.53269174161494,1.1506811e+07
148.628562013806,-6.420662303514263,22.197207577085763,8.1432855e+06
-147.1298709714358,-18.90107473690415,17.08659154714798,1.4035665e+07
-74.76483663866019,-148.1999609126572,24.505893820690194,7.475469e+06
-55.51970553536023,135.66163028509084,46.11214652125893,1.3419155e+07
-89.9648580599139,-128.91691496626487,22.57829520662071,7.2474055e+06
-108.48521441220015,-36.0108940790569,-1.6000682406636784,5.611828e+06
-187.1526531623194,2.8505654665568443,-3.299980189645457,2.8704042e+07
137.60996792127054,6.580649491864023,4.063490517853615,1.2861829e+07
3.077824862296012,-142.64143251201196,-2.157660644871313,9.910382e+06
-146.497728620509,61.25944864873116,15.6569691162271,1.2581019e+07
-167.47809817475024,23.04256974183602,40.55221706256316,1.5924731e+07
-113.54769429056745,97.95845271713188,33.863832100643855,1.1412029e+07
135.63350837040838,-89.61256970114549,8.809925089360327,3.4174368e+06
-54.280755474935205,150.45802906944851,23.454128997313596,9.429278e+06
-157.729819202614,55.5013696513183,41.97935627400659,1.8115444e+07
103.03427526636517,-126.36148579489866,-2.360793468320267,8.376606e+06
-31.362826328552018,-143.3770652880433,44.62781086689332,1.2246479e+07
-120.51285237211533,-130.46249267284878,12.486076277905564,7.550662e+06
101.8272041567534,41.519710998092165,37.54690153973377,1.5752482e+07
107.12020799275005,49.97802057735851,9.678370245640455,9.206234e+06
-84.06187106433399,-104.45007804849612,17.814492619108496,8.454206e+06
-153.88029943928254,-13.870749593724469,31.793323370520547,4.170254e+06
-166.99394334154857,64.87391332444923,15.818359153060545,1.746329e+07
-110.86865528719424,-79.89410406762877,37.06805122052671,1.4135187e+07
-107.99134033603019,-2.4061060358791337,2.9732476928837466,8.1267765e+06
-176.44344106443498,-1.6118075579464062,1.188947004535706,1.203115e+07
-124.3812931664149,59.02691321797146,33.08840517365382,9.392612e+06
0.38128724591035734,-134.13718688894318,23.118438494039154,5.3283355e+06
121.4203557583404,-92.33766143797135,5.479338064466834,4.6203485e+06
-158.1516724729592,-95.020509877373,23.194685908405294,1.2084811e+07
-110.1381615682608,94.43102375935786,28.501734480208768,9.856888e+06
-66.12357389657646,153.20390250968256,13.035601340205222,1.7067212e+07
113.80500879977251,-101.98217697818963,37.18702996143172,4.239986e+06
63.59528204975482,80.18826849145483,31.774253749076784,1.1248959e+07
-139.42641666198168,-78.79851579377215,15.47346644535468,8.956149e+06
88.78432613598915,-115.3168868188314,10.228771016221883,6.2605855e+06
126.7665629825442,-75.61556624214974,-1.1376890104684994,6.5635845e+06
135.6519208101834,-38.545593535056696,3.9880582995188893,9.934043e+06
-24.51641174315401,-99.39787549392717,24.82328497056299,8.0891515e+06
130.55646596549144,-31.41083143795501,30.752231919663657,1.1771544e+07
162.29749875704067,6.562043546461581,6.072587092175803,1.3802905e+07
-63.897281338200884,-147.96167680568635,37.18313442722253,7.6118665e+06
76.55794646021798,128.68457676502112,16.20098863211858,5.090781e+06
-157.68872487549666,-13.3076716222717,31.445099783492672,4.370169e+06
-173.25241603841425,16.59296786556186,18.366890904289406,1.9956122e+07
94.59309362254618,113.26119632456948,5.12379830754988,3.8128712e+06
152.56444153810185,39.3440352490814,45.35832791832005,1.7051876e+07
96.31248379961164,88.52786165169357,31.452232250453505,1.2852956e+07
-52.426584250531285,102.71123443569788,46.23286023662151,1.538137e+07
98.06366185276465,39.03852475269275,-3.412566413084996,4.7726325e+06
68.18832290966844,-149.40300480879776,37.19904607166973,7.772986e+06
-172.77154237362478,-17.45365829053287,1.9097180248138388,7.577668e+06
-62.28646791267601,-98.18876562132716,18.964596689678913,9.947381e+06
70.52791436971194,-132.11638319282875,10.220100235248129,7.2652255e+06
42.21583705910197,-141.18889948395963,10.48892951532676,9.270393e+06
-128.75465048721128,127.77606509236917,20.437036250472453,1.6715228e+07
89.4048870426081,158.10131468386493,42.18700119103751,9.578284e+06
-51.40836475933145,129.58238427935117,22.038519010656717,7.3612275e+06
102.746964557257,1.6324121175096593,-3.942986318846897,9.60286e+06
-152.83085452179284,53.554788014075285,-1.558834782213869,2.4343088e+07
-173.68904213646036,13.136862669269561,44.90687358046595,1.9754266e+07
-15.403344768927896,139.02058436819937,41.048713679147895,7.774347e+06
80.2363252582876,-114.17393185221916,40.53785149550795,6.1966705e+06
-31.588724138497327,-115.83923140745735,20.3110211110788,7.8834545e+06
-129.11297401819715,14.462311787007737,14.768895212417537,1.0970358e+07
-108.437003515836,-73.56728338080111,18.56823596659814,8.133789e+06
105.83242597265405,-121.58561844417441,14.100545928433935,4.546247e+06
170.77818182559884,60.30589345238684,6.515372952439414,1.5268936e+07
87.78187377713118,103.87679066213072,33.32189739814911,1.1211343e+07
78.19929218311745,-96.06448132438503,6.1622911788433035,8.987116e+06
36.51271898499195,-161.80418766126596,14.472476854242199,5.3636045e+06
5.995431850368902,-134.71461967445816,44.08842463150007,1.2553127e+07
-103.36377525964058,11.710013058563817,1.7460376266572966,7.579147e+06
5.971648167815289,-168.74346550040383,43.441698973096045,1.4937649e+07
34.63497224861149,122.33183664794535,30.384243283602174,7.870785e+06
-42.06907175174709,-117.57479661894826,24.933558409148944,8.100733e+06
-158.69823690763556,-40.8189514145088,-1.4885005724913694,8.564869e+06
160.12215488439398,1.691919933622188,41.870109739129084,1.3280219e+07
119.42133214230581,26.629644372993425,45.22828736711611,3.764048e+06
-154.25505788552144,-34.07363094475261,38.42485044608344,7.7433845e+06
150.7613105558736,-20.814342254636756,44.112705680629624,1.7123782e+07
-145.25667568705902,-91.08955308596123,23.069976447598876,9.518153e+06
152.8874337715023,88.56264694275166,42.20752989690377,1.1790147e+07
-139.79118027627527,-128.14097097453651,-0.7484417702144673,3.0946872e+07
-178.86199664733965,-7.827142630335089,16.203671436505697,2.1493548e+07
-165.75126318097534,55.43938206548472,-1.6967458066643624,2.9932626e+07
69.98909308623087,127.63638284438008,0.02878288924514499,1.2763108e+07
-45.86956592758793,-116.50612810038395,37.165800428442644,1.0694552e+07
103.26357571788634,-14.530165244817539,35.402350666756185,1.5259686e+07
-131.62083377223146,32.11373379668751,-3.6631165427230363,1.9071824e+07
-168.46544295385067,-11.984495323659019,12.607480589285196,1.7381994e+07
-95.89896115828363,49.33544836005882,39.368504637472746,9.279736e+06
-84.9125621124323,-142.04198315219023,29.036341637687936,9.928392e+06
-71.95342383652189,-146.2176303126634,41.36385758869477,7.738542e+06
140.1417058177846,73.95708676172922,33.02351791100704,1.2999863e+07
-149.4456101482748,-113.11573542862439,42.24494226606854,1.3230616e+07
-96.2749513626831,-121.1393588206668,46.09900897177907,1.1955779e+07
-82.6019404464064,80.81541277602116,-0.7821586189997619,8.2731175e+06
-38.10599816848827,-118.71066601910755,45.16927529363042,1.059765e+07
177.4938198936306,-16.20523774396841,22.258300532122913,7.966198e+06
117.26528154105324,46.55292259923618,7.941720357733148,1.059466e+07
64.82536307472293,-167.2920892411302,43.391448326950346,1.8906664e+07
110.69970317552054,-43.62065993323313,5.534819440998767,9.759489e+06
-135.34523128664387,118.7986079721125,36.44794809812713,1.7310804e+07
5.502515052533937,-182.97789145191942,-4.8078276697425,1.2199524e+07
-140.12261439725404,-42.31942232965446,4.453836004408463,8.0625045e+06
-106.89235543147117,106.90319303062661,38.244848956058526,9.282133e+06
151.36913144355105,-66.69501781706319,27.819365695537776,6.767476e+06
-55.84238308904866,-128.03609134881128,41.52673566367248,6.537842e+06
-64.34322931724785,131.76973372432468,17.14195656015125,1.0135624e+07
133.46599943970284,-37.45970306910115,28.255091789316698,1.1263179e+07
116.7388131027804,60.52367882629943,2.1533666140897223,7.6394935e+06
-60.603859100076676,-119.22250319174132,-4.521682881482413,1.899921e+07
91.85147269447515,-66.25389127691966,3.4850503941043685,9.093881e+06
40.1885093973369,-153.21826132598375,25.615843731124155,1.0609501e+07
128.14616750968548,111.7908048700923,22.587125924787742,9.625004e+06
-152.7659977148156,2.7844465733007837,36.03679136988298,7.310476e+06
146.43297658687703,5.616058825066517,44.90377462688295,1.3219539e+07
106.99316454418744,-24.213062408078827,23.75371434986616,9.636344e+06
-9.913934200020208,132.96803765568973,9.443575172984662,1.2660668e+07
138.73099396241025,-40.884260035272604,12.930210088710975,3.6139475e+06
-7.053903576444583,103.72162631970849,13.124051494303124,8.1882535e+06
-17.77892438392979,-142.7704313327361,34.99963645829814,9.916044e+06
80.44008205182911,-169.1534588116841,0.8889550677634821,1.1052574e+07
-170.64996521446983,-40.145860943953465,42.84868255558987,9.734899e+06
-66.70867652150565,139.6947505642375,8.580652293023137,1.3473593e+07
152.5243161787223,-75.51444012141037,8.259797867342913,4.8625105e+06
81.85850361333962,-164.7175332219986,23.438470257770103,1.2863487e+07
147.35992463790842,-10.153362798180154,22.310469761676213,8.290462e+06
-130.913126938247,-102.28477491759809,-3.8267461564301906,2.4516868e+07
-18.933525979237317,162.40568196004472,1.2991657492953388,1.0390243e+07
-32.16214810012991,-149.89872493994113,29.839320786925803,9.06607e+06
180.05670812527785,-9.514256263066073,26.016567785050746,8.3266035e+06
-60.02976378594295,142.0815845505307,5.266072750327514,1.1274387e+07
-126.78554681059184,-84.42100285041865,27.69624603966668,1.0136165e+07
-91.91143293014044,-132.43663807836174,-1.2600171021172333,1.8822954e+07
-111.6618096655364,21.490402911161738,19.961224557486318,6.504027e+06
-80.26999757016915,-151.90187868545783,10.0628829513797,1.4408766e+07
-51.68889917301894,112.19867589212737,25.27256174813431,9.045647e+06
-151.73539957018022,-92.87402574441161,5.440249874393834,1.5021636e+07
-131.43611718110787,9.805655072443386,41.755619852185596,1.0148941e+07
-65.71345652411003,103.43834864033305,31.428768390335264,1.1668121e+07
-164.49097116852056,-89.21275609925613,0.9554903530910829,2.0485716e+07
-5.565527819850132,-136.8640042398551,39.652317245340036,9.004017e+06
-90.154651164511,-51.56632463422892,20.568930129560282,1.0581469e+07
-95.22754473758503,65.69885303835423,-1.3340617368761067,9.775755e+06
-179.9290931389212,14.103228480023146,-3.750280392160591,3.1428378e+07
-127.06868276341496,21.90482595910774,15.832256496310626,9.889894e+06
-83.49952760850114,72.76348687100568,45.25975496469388,1.106211e+07
-174.1346400021119,-75.48770749505466,44.09695485723356,1.1481724e+07
-102.07600779460981,-34.15570520434997,-3.1562736568804013,5.488678e+06
-81.80377252407736,131.68374733256178,33.718022830742804,9.880035e+06
-32.661927352562486,143.3764967853711,5.315565763141443,1.2757422e+07
127.40726082183767,-77.3391707167109,2.7369197445806446,5.732538e+06
133.9914138997076,-49.16316908075058,30.478778811369693,9.776906e+06
-7.570007300803695,161.265894322809,37.227936436717805,1.2216036e+07
112.51391988676052,-114.63410337250316,41.68916024792513,1.3760674e+07
-64.09097892573942,140.90785751156665,5.033526873025309,1.0647813e+07
133.5207434382881,-34.78523664651081,11.72788393042445,5.0815095e+06
60.333982236439745,-143.87237467415193,26.698669812717043,1.1410607e+07
-89.0926756086694,140.68677054654745,44.914424734746866,8.3012325e+06
109.91724744958418,-22.784832531534818,8.213461215836077,9.931281e+06
134.05269337899506,93.91996845569764,9.87067246285624,1.06082e+07
-177.9485605514003,-19.08672616361514,11.16546734830455,1.7431174e+07
162.61951504017253,1.5780479754919838,-1.5111387691445852,1.3787322e+07
99.00905636994514,59.8886283647052,41.90639331568133,1.1671455e+07
-74.26152259940034,-88.19381452843369,-3.8963193139991636,1.5268401e+07
9.199317296019785,-159.851023147952,30.20620852722589,1.1229295e+07
-20.94343022204876,114.22209606932752,-2.9674769748948426,1.4964231e+07
-31.490870608364133,157.99359950394927,0.9721277801858726,9.061462e+06
-46.40793630077252,136.65752686609716,45.02368728654798,1.1269308e+07
-155.9406755323672,-21.46060078082604,45.48857047791559,9.119157e+06
-135.41038421262263,-16.137857729714,22.948411573287274,8.175414e+06
-47.932297535534815,129.87528494998145,42.992677912432235,6.8700985e+06
112.28228875446848,-9.825934499374029,29.659310897472764,1.437234e+07
-93.18301590572298,-43.785492036348074,45.32102117537336,1.1066071e+07
32.545150352566935,-135.9869876203107,43.88802960270846,1.2770167e+07
15.491684763690385,-132.33096294461183,-2.195215663956466,1.1740162e+07
180.62139487622517,19.49142660840556,5.604566908519714,1.6884446e+07
-63.38135640664015,-136.06311183308023,27.921085820756474,8.72753e+06
34.94110671622522,90.23909005779757,0.400639291744646,1.0604148e+07
-72.01952348115208,-157.55663954834867,33.35998155285515,9.770407e+06
-52.18331114284811,106.50677707563337,13.04886707255287,7.5392035e+06
161.72355142957764,14.486935614570656,18.942706209310074,5.3039485e+06
87.33632277508787,90.32533541452295,13.041232718199158,5.445359e+06
-22.3323820397446,99.58091836591649,33.364578531210014,9.862694e+06
29.76598920904542,144.26922049794064,43.6564380476917,9.850748e+06
84.8812539571395,-86.02233797373407,43.366928051223084,8.2465975e+06
53.96169554579089,-167.578925705258,3.2314414810395196,1.0093048e+07
-11.883839218580817,109.64788468264878,46.902651844599525,1.890126e+07
-152.98647100148824,-64.07631706021394,25.550701836135612,1.0394514e+07
45.25334207623129,125.06662619888459,9.67334172463276,6.346034e+06
126.00644371694625,-114.05433501293895,-1.8028576187902687,4.5945475e+06
129.70824319905904,26.875462987953167,41.4734033082947,5.4665465e+06
2.1696591976486843,113.59894822089728,30.779635174500342,9.11699e+06
61.91708289532085,-103.2082901788967,46.79839635975246,1.5167114e+07
-64.34452185564788,109.39521811483421,14.711149631579705,7.131943e+06
-115.20147247389957,79.8806006415769,43.63679603107159,8.911641e+06
-65.21815981934066,-163.81967227447439,28.358731730435736,8.6363e+06
-147.9470221414448,-72.29677734614302,40.65928756855988,8.2443935e+06
-103.06730405389195,124.31142190994473,-4.824533139854233,2.7386494e+07
142.85391157703816,49.7526798770121,4.176432659382562,1.2844926e+07
153.21680139476592,95.73704272669482,32.6180194500692,1.2023738e+07
-3.85446634392568,139.44890633858796,13.557932411298843,1.2192327e+07
99.9532820259717,-122.82858896738884,-3.9765733734319215,1.1821607e+07
-146.13055018095267,35.16129564044465,9.864837302459271,1.0943638e+07
-49.98986447743667,-165.19220449709917,28.54032425407172,7.980926e+06
53.91785316489662,104.37079662700683,7.643833384144182,5.2384455e+06
-30.804772470908176,181.27735881228693,44.7876370446629,2.0481072e+07
-175.30057997463032,-24.05087983165467,6.464078177281565,1.0654561e+07
117.52106196596668,107.49507408762719,33.82282298036433,1.1329476e+07
98.75274652246333,-46.238007506455716,16.70025422592443,5.3903285e+06
-90.75596473819587,-28.36877067338176,-3.194382191089026,5.050007e+06
-103.10517305421838,22.42723195161966,30.624129959808986,1.17716e+07
115.45343890749871,-18.02468177420485,22.41336136009172,8.643095e+06
88.82723208025322,-78.45351099311513,43.08273420113102,7.8701775e+06
-126.52225898042019,133.1614478068306,-4.858517505516559,3.966287e+07
-89.88366273725777,120.55480302995443,14.48796704164468,1.0549103e+07
147.32910015243863,-34.925367470074605,38.35714356675968,4.8310145e+06
-106.41880374739677,-46.060485158966,40.053928102525376,1.4330256e+07
-119.7992715411242,-19.857931467780844,18.292063864849915,9.726218e+06
-146.0969635168964,41.26360682705658,5.520550740385,8.310297e+06
70.27897690619517,135.8732143342873,17.96217088399869,5.213529e+06
-24.901403105690008,147.37641742691955,42.49508373145421,9.502218e+06
134.06457831677102,70.73808730870155,-3.9524765814752314,8.676462e+06
-23.66958562691076,-87.10097790015664,-1.056397029784674,8.882176e+06
98.77348308425104,117.06007704758525,37.681859153330855,7.109927e+06
98.77956377095109,105.860634935164,14.39585546309861,5.849077e+06
-176.0382166705754,57.468332857212886,0.6098973533541987,2.6038202e+07
-36.14043827193808,-164.15809212925944,35.53670964836723,6.6686165e+06
-159.03718568504848,-20.22491026647066,31.63662207778494,4.8137905e+06
74.96274789637698,-163.2557231481386,22.11626069497749,1.1295405e+07
108.37793945366842,11.630811441774199,0.5896725595806204,9.64875e+06
88.74068153887117,130.72196754287586,23.168826065560385,7.69107e+06
-10.642759433212547,127.97143113561016,34.59899600062322,9.152638e+06
153.93368191340477,75.08499523401417,15.063106920337596,5.271251e+06
-21.719970982658594,-117.0213415662749,33.35650410371744,1.1662895e+07
80.05576794812379,157.42784275682828,41.767111560422954,7.988083e+06
20.064787186544123,-108.61136248245624,20.521156844099764,3.0547112e+06
130.7523785919692,-66.37397558145858,32.052956666543324,7.6382875e+06
-98.89227024501155,-140.70605916682283,41.01988514941982,1.1242152e+07
-83.25928410117456,-58.684012843630086,30.462620452618893,1.4952623e+07
124.25120757380272,-134.65625130369182,35.70139659948363,1.2147351e+07
127.92167106955951,73.01947255048799,46.35965058002014,1.1860726e+07
23.73709434834649,139.70324427617783,47.027736184099474,1.7133226e+07
121.97058896676145,-13.22770573583,25.27506703899892,1.1430475e+07
-123.02985797243004,-54.33816863337123,38.68386972445927,1.3312924e+07
111.53129981938218,-13.173916500582012,29.377800203407595,1.4131031e+07
117.22533647974853,80.92117539847959,1.2556596579686798,5.468605e+06
-58.32201856284033,118.82963697942046,7.405086310915611,9.950708e+06
-163.55769499840284,78.16682512603631,4.582470858159578,1.4497532e+07
-28.576035086648886,151.53342230357913,-2.5251194913164987,1.212899e+07
-174.80842534928436,56.798532029519606,41.56887425697839,2.5479372e+07
-103.15235807952759,142.56750649378824,44.20112228917942,8.53082e+06
-76.72992994313685,69.64813316041358,-0.5196495992194141,7.821612e+06
29.771086509767883,132.77953755778287,43.71885221379281,9.262175e+06
-113.77487113149738,-42.44948868284234,29.481291419640236,1.217315e+07
-98.92683245774734,-64.13348972943663,9.77496159051051,8.1762425e+06
-7.720062511810909,146.31860072676477,41.994736737115936,9.274308e+06
171.5476043619472,-50.10332186007642,-3.5167370092423273,1.3912166e+07
-139.19453021439324,-106.46637319858714,7.841439709001209,1.2021449e+07
-109.17247177948978,-27.32953793595016,33.03665300776466,1.4378776e+07
99.25343455693672,87.69749618379285,32.27626024154542,1.3181576e+07
127.62166026657032,-133.74694486832306,40.9119617993825,2.3838166e+07
7.916604027563125,162.01653572859982,16.386443599569773,1.3770994e+07
-29.122636372755522,178.5827075913329,8.397475704870672,2.0028234e+07
-144.10857682031929,39.19262607274487,2.8498741141017594,9.885688e+06
-136.19256375316496,75.66681904326362,12.022854688395132,9.557639e+06
-121.62366700221412,-58.30023943961021,41.28242571873636,1.1692003e+07
-110.50585596912703,-121.16655816023258,19.651965066155128,5.320489e+06
1.4444283092842625,109.71651188995304,35.99677480415445,7.6184095e+06
-18.702033878365057,-148.54772499409324,-2.1001377215087795,7.720589e+06
-79.85878679751868,95.75298908046881,39.980345288625124,5.6939805e+06
24.329226047155515,179.52030773639052,-2.211213775789853,2.1092828e+07
-90.90610427679198,123.83910045899825,39.84809857446457,5.613329e+06
133.6978019193828,-66.46935877633965,19.564970602429646,7.37296e+06
51.00412573967055,141.36744373039437,27.424096579122214,7.1492065e+06
-51.47319820864814,136.03008472088914,10.038812108768203,1.3496654e+07
18.104563373818024,-138.41078419159737,38.11623565083108,1.0080367e+07
-149.75917545089166,55.089712840823154,38.861179304808,1.4080976e+07
18.919342068795544,159.1400081943828,25.744309723331472,9.501461e+06
-26.538113328396033,-120.55128334060976,37.235276678442226,1.0575882e+07
-2.671561749227351,130.8432488060111,11.746288893440063,1.1560815e+07
63.03962099322035,-110.09200739163613,4.911020044321104,9.536005e+06
-120.37903881767775,-130.23301572677173,36.036573849868454,1.4050339e+07
-131.38372335688462,124.07100913451757,30.647943453042274,1.6640578e+07
-73.18026430258593,167.6249839576094,3.9315157185384546,1.2737559e+07
-132.91222490742203,105.17921298020521,19.017517319004337,1.40918e+07
78.53992887898295,67.80495854531313,39.60269272368936,1.4468626e+07
140.8562568348692,-35.81353214350824,-4.567272448945454,1.1580121e+07
25.249537144380067,158.16710714238945,2.908723766182872,1.1059549e+07
-103.07249253934869,128.02801441074087,23.009152444316324,1.0569898e+07
113.53924322125516,-46.84222455318897,21.32835134721484,7.987862e+06
-104.86712935247118,0.06093035052546725,42.38887287097341,1.1472153e+07
126.38926580661081,54.98225045701642,20.677456099625818,5.194988e+06
93.63420723656253,123.62353047186582,-1.7482491238179194,1.700873e+07
150.70441549968808,-66.3795306851683,22.126820214439718,8.0110115e+06
-136.068898684143,13.546053579392236,43.26064458862094,9.912535e+06
184.29524285317763,33.432556935003845,43.5560453691429,3.0898278e+07
-162.65777950017784,5.514830423914532,19.3208031757945,1.6729783e+07
83.74340498818094,-131.0791732573411,23.134452579503737,9.198296e+06
-8.536421228458039,98.78800376346192,-4.842575517219066,1.7563102e+07
53.08258355765384,-105.39246718147538,0.44542597619239144,9.521262e+06
-107.84684388115248,149.9685812297971,37.154342795519014,1.1574289e+07
-91.44212307712247,79.52208547733198,2.3469388585165776,4.069798e+06
53.20827025887701,127.59380237572657,-1.4279965537752086,1.6672904e+07
72.46448185447821,141.28672372027717,5.247385390528904,3.6589172e+06
-164.3211905548652,73.63244232411523,21.470010773914943,1.8960686e+07
22.404766403303626,155.49326133063965,38.88479699851774,9.196574e+06
-72.90530231045547,144.59578064865826,7.0415888696113145,1.3070074e+07
38.71601747361507,104.66089001299679,41.06251720184885,9.286204e+06
-35.776906446248944,173.9151053274539,23.0145593446452,1.5362822e+07
155.01573412054188,-87.48662521845283,13.15168660352502,5.795283e+06
0.6141254655961177,184.6531304135229,28.40391664343784,1.6855132e+07
5.495046175732028,188.77597769889917,45.735075146706436,2.6053568e+07
-94.39843499097891,57.49966516346569,45.036088087078944,1.0241233e+07
131.4414682146931,66.42847600565108,38.765346775701346,9.011279e+06
132.3605579570393,-40.947700367528796,5.025376323760596,9.388654e+06
-177.89745460433056,-2.076112006317601,4.321238405876129,9.075977e+06
-80.06586406149631,-81.80732794247673,-0.3265926356758383,7.773438e+06
-107.53708090141045,35.61424510302626,26.65318406549493,8.08544e+06
176.68600442502049,-49.90389496932383,12.445329337200643,8.0403015e+06
-107.28376271054087,-138.28378058326223,45.4099607802882,1.6116016e+07
138.46124355077097,-116.357086387478,18.4061152793339,8.629773e+06
99.79407876008952,57.72509791901836,43.201215037075016,1.0501275e+07
-57.742154080376025,102.39929146844054,15.689401029371965,5.7003615e+06
-70.61012939242488,78.93473167159863,33.990629546484655,1.1762592e+07
-114.13037715833853,107.34717561479596,28.457529192949327,1.0961968e+07
20.578194451317927,-166.21397858834973,-4.916206777942676,1.6623749e+07
-136.15140755932842,24.367799917978004,25.836163149305587,3.5080708e+06
48.22928615587156,-146.30580990500277,-2.7600758008869803,1.3216725e+07
127.78917773581469,45.379284723663005,9.74810078732026,1.0016109e+07
-79.54100292692728,-112.33679530887528,36.138046236904884,1.2131414e+07
54.58443494636694,-139.42619434347353,19.762407528195016,4.3540955e+06
-136.19010719095218,-87.75315073922476,14.155169823451688,7.3518825e+06
-101.59695961719328,24.39826141085578,47.215902260527294,1.4045662e+07
94.3529156540784,-84.63118265030616,33.57921199341002,9.822943e+06
-48.996002005065264,167.1108411902859,7.5080288064539085,1.7699236e+07
-142.89113698963342,60.582124052762545,12.72935480275915,1.0905649e+07
-41.39091538527441,-133.8785421826112,29.192643726855653,9.381011e+06
148.05287006145636,28.28432473286543,-2.258581704180536,9.828974e+06
21.17093568951796,135.90957854014334,36.43404576056449,7.436188e+06
74.38813384424225,-143.40547037625285,19.35646539892479,6.3535385e+06
-144.6048722335087,54.007194461181484,27.72376895903608,7.897961e+06
50.113627721753005,171.84595268707125,4.218617315096079,7.976447e+06
-92.31566702385612,20.348229707421382,0.17524784342863,7.0747355e+06
3.3132261040269664,107.505275853034,41.777653396952616,9.01519e+06
25.066092381029165,179.06681029054522,24.95845102674968,1.2789508e+07
51.587842075623,122.29143715393586,17.703577082489492,5.183259e+06
98.5608429734865,51.214897675428006,37.31221036166919,1.5599284e+07
14.587414592801053,-173.58155926070097,6.814430088191733,1.2787318e+07
-62.21838965786981,131.84415757172133,28.721991269606225,9.424522e+06
-100.63416252389405,141.340903443947,41.26194118209558,6.8233215e+06
-3.495661247752878,166.45758062691726,42.49099760636863,1.4165405e+07
-9.365879577932787,133.30275728188428,30.576342850909988,9.771838e+06
-87.39046563161384,-79.50767453285619,41.29356246580762,1.2154416e+07
-23.072021589670925,106.62900360678071,4.295875093153396,1.1115444e+07
-71.02425758333393,-96.34757446981612,18.88191807472954,9.692307e+06
92.20787757351212,-0.3463288621426841,28.430317924069403,1.3101161e+07
-97.49040417872324,-24.560865394074995,5.47374577547689,8.885365e+06
-50.695479131311856,-95.69165452197441,40.05986009514085,1.1084778e+07
29.769293920981454,138.5025179982099,22.475587890726846,6.568839e+06
-178.20380194631292,44.30717276584741,-4.817415885432048,4.4232348e+07
-42.99461770415408,-109.3248171896894,6.378995332840091,8.641127e+06
-170.00707402530253,1.7664004471347712,36.19964856386474,1.0186351e+07
26.66017409387584,122.03920129774815,16.08285623030642,7.1827735e+06
5.076919629180566,-170.59236696261726,36.64021299929374,7.218174e+06
-45.07395858397004,-170.19934610189677,45.71851159256464,2.0825942e+07
-49.12774104104173,173.12083007567526,17.408099879892713,1.9531004e+07
55.30792663323223,-83.93652860722591,28.889136891796277,9.02488e+06
149.89052332689124,41.7060008383242,29.374248433542114,1.3019932e+07
-146.9542463420231,-79.0605215968863,27.45294012635217,9.87857e+06
122.13683499452831,102.8228556413704,23.445069795073398,9.071475e+06
146.75630181952425,-84.7140825280945,5.4274855018094055,4.7391165e+06
59.33498114130333,-148.189507734421,44.71165890621496,1.7379568e+07
-141.694600602236,-34.90588726644771,13.679833657693123,1.3031424e+07
128.92195330230726,52.55647203583087,15.306319667508584,3.7471648e+06
-29.24460579400042,108.1203857702302,21.665123842874014,7.681808e+06
10.555539528943513,-106.93515256531384,40.47726125779353,1.1437402e+07
-131.31091467656634,-41.00244758638928,0.1266248409778481,6.39927e+06
-13.253200442038917,-156.47258258631905,26.54638788716246,8.236203e+06
87.50532734167018,-138.67216175339604,1.113944957367257,7.8236395e+06
15.735172963390594,126.29839861082729,2.7119856544348617,1.179492e+07
-188.9006211575464,10.791269747519692,-1.5774339332529954,2.597444e+07
-105.56000701723116,28.427226899212425,10.91546813331755,8.257536e+06
5.551140440716466,178.65160300571807,31.515831351078646,1.560909e+07
-173.13538609622236,-23.751572014084047,24.736274179491165,1.6200165e+07
-171.5566391778156,2.0723395809312137,-3.7117451457576323,2.4598294e+07
179.46441642629281,42.977919036341206,26.397173166317337,1.1627306e+07
-54.31127886961682,94.29173283202323,8.041560911655155,7.5039545e+06
-33.431324926242155,-181.115953885531,2.199020035256332,1.3961849e+07
-138.3512840019264,-84.87972550969278,38.164542201395655,1.104716e+07
115.7842138165006,123.79897573995817,25.87787258770318,1.1047853e+07
-149.3837133496168,-61.82812686939519,27.466834946419155,9.145983e+06
3.84045906710449,-139.47727861869458,6.113885833300041,1.1707415e+07
-149.65218575372333,39.385025275667914,5.330724797793696,8.730354e+06
29.422125511464085,-172.4265198304405,37.29292545500152,7.5873045e+06
-73.11961558569466,169.74075598892415,31.1913349261641,1.2173004e+07
40.86522342629476,177.90128466496043,-0.6590191236647799,1.9143826e+07
-21.02675998108748,180.30929849644883,39.991070682421956,1.751238e+07
113.5390060762485,-83.88373069887992,35.306441688688636,5.8524615e+06
-68.86475111475531,87.21441205650223,22.64053951562151,7.9934645e+06
-62.6057670593601,-142.11084472916488,41.50161008785008,6.472973e+06
19.547345789646556,145.0004403426268,21.626064608932722,7.775403e+06
-40.1249177647189,178.5832893792491,6.421720449074803,1.8139968e+07
-166.23855878504662,-65.1649479298145,37.712758526950196,7.3793715e+06
-168.8716432426228,-54.91908480491537,35.00916421176699,7.073735e+06
-130.3733709823097,-36.436694742008456,34.063001378139,1.1647306e+07
155.1038693654193,-14.19252612095997,28.776644591835616,9.67359e+06
39.143481363853766,-173.08864258884836,25.201818265829747,1.1675201e+07
68.95296324520143,-163.76560718242047,20.139093858250938,9.015794e+06
-63.8401872903292,-94.90412407685098,36.11261531181693,1.3532826e+07
-43.93523694790326,-139.52581665197596,23.764603517099395,6.6137835e+06
105.64180238350214,-55.60558095982708,8.543865079258609,8.3865925e+06
3.4505289723366563,-125.2415276511528,18.090239619673547,6.107342e+06
-119.4883129671676,-89.9619593779993,10.240750747508761,5.994618e+06
69.17997433263253,-128.49434569709976,28.833594748746684,1.120107e+07
139.09192819875443,100.80142066612552,35.754031367183195,9.84796e+06
-73.47756975742539,-125.86303964231028,10.704623968389049,1.0539422e+07
76.51253511965956,-135.9312813304891,11.189050831566728,5.9595105e+06
125.82699242217757,21.001730244088264,5.945415943053754,1.2128439e+07
-127.50864027468047,106.41996243274008,21.063143674057798,1.2862598e+07
-41.041906484414795,-120.88111903648833,0.47621290905145824,4.691263e+06
16.660911094369794,-153.61039306345185,-1.005492332777393,8.2879405e+06
-60.610483754042434,-111.67948764466855,4.501021464024662,5.683741e+06
9.153340462762486,-141.37627253191022,26.34197897961236,8.877305e+06
96.87150798005632,92.73134606622233,18.989583727121225,4.644379e+06
-124.5842822457066,27.669569510624115,47.1757827955359,1.2357723e+07
71.2390301217875,-130.65191443839365,23.584657964410027,8.74409e+06
50.62690134925094,154.91250242860986,28.07124641804684,7.9072785e+06
-99.3491586014236,-59.77014871931635,17.161876121573936,9.456543e+06
-151.33054631741743,-62.9502687315092,1.7966509936347714,1.0340801e+07
-124.33562283472055,-9.333450931375921,35.493958659859615,1.2118328e+07
-131.74220714745076,-92.83092865606166,23.04434463847318,7.965069e+06
-51.15899229868518,172.34427880842065,45.84015609084285,1.7898202e+07
-120.19310534957026,-67.47681373793591,21.767223006952563,8.359468e+06
27.38499387820195,136.1100336647387,13.783397152240696,8.896763e+06
130.71475652972572,-27.417999732462615,19.173885114603973,5.805993e+06
-122.78325818860276,10.087863655441168,13.744348910210789,1.0657385e+07
34.75379393634935,105.87422550586591,14.233546270269617,6.460484e+06
105.11543781209845,0.030475027383459974,4.014065775753547,1.1373772e+07
90.72691617049054,95.59950160568542,46.675826620498434,1.0647646e+07
-21.83859253956365,108.47252371068777,-2.4849325336485797,1.4284721e+07
-121.61083347487902,97.00359619702851,23.794415616693318,9.919095e+06
-66.89282878687632,114.58667477172304,25.80270884144856,8.789472e+06
46.38366966868742,170.98425758293257,16.431290861290016,9.241006e+06
170.52161269257925,-5.880733637888994,-2.9803807926505637,1.457506e+07
-129.18546393290018,-106.86263334512343,13.56375875403554,4.814114e+06
58.568245998684574,96.58294544102768,26.825230454961638,7.815431e+06
-9.7592015231088,-114.83251968145542,13.181460084109059,1.1556458e+07
-71.45694900036844,-131.48421374975703,19.27056043138384,8.321042e+06
-79.48668102750642,101.76571659922757,36.731716577360544,9.145377e+06
142.83474236548238,26.704558567373397,1.6483193743073419,1.2648037e+07
-88.60611731102041,-145.9083861392528,-1.3088338587452577,2.0545848e+07
-53.83152154749297,153.01342697301038,5.064152302801689,1.2594799e+07
96.17165061655197,89.08636953103462,5.256696502466303,4.9773055e+06
-101.86691835340955,32.39330452802497,6.441759839930582,7.5300845e+06
100.68768361092373,-59.934311670273296,41.055999532518356,7.387612e+06
117.36235672726637,-0.6658642486514168,3.795822354787284,1.1804526e+07
-62.350021762372734,112.0696182322435,0.5086034527712868,7.3994015e+06
85.03330486609724,57.98889461645313,41.279073901358096,1.4536845e+07
-157.18665086482594,12.515946456064825,28.85953508928084,6.1237175e+06
-157.72018538630576,-42.82796768069329,33.83108833430328,6.2669835e+06
142.90126967911624,-74.83699600749839,45.86327286218377,3.056584e+07
-95.00193616627035,-2.391627385786734,44.89229013589274,1.1649619e+07
-184.44354794983386,-2.2520746352867036,2.9395000053609293,1.023769e+07
-98.15523354186611,149.45141007569117,-4.596015726264286,2.7573388e+07
102.4470887480972,121.21036680753456,44.77950631755838,1.0027054e+07
-138.0118513066385,67.05119737305307,7.325426515373808,6.5401285e+06
81.27543404026017,103.39747650271482,31.957571904064878,1.0900174e+07
-45.611294312701915,-144.12527598965772,15.395736186829252,1.164345e+07
156.37552973682585,-26.220066170532473,20.021530285260198,6.4374095e+06
79.97991532002737,-159.1880210219093,3.2590822116993188,9.398399e+06
-7.558176556980897,161.76136380542994,-1.0370748786574842,1.2973493e+07
-9.54901702295166,-183.73991223409087,-3.6318122794933987,6.6627945e+06
54.35631975082953,124.01507572429394,42.306697540759316,6.1668815e+06
-95.83232831571165,54.57506095648367,17.474860531145524,3.8471002e+06
-78.0751383249183,91.17711059936454,21.408242348182952,6.092973e+06
-61.15424931559389,74.82212712600642,41.68660008577684,6.6899915e+06
-52.40100525682405,-136.99435066271147,30.17303806660164,9.492473e+06
118.781013936296,57.26058222038569,22.141674867951455,7.0308445e+06
122.89869155675483,-32.271205027557755,39.463432113039644,6.3912175e+06
98.70681299602239,69.5968925167578,45.605485819378664,8.604761e+06
102.32571769793299,45.13759738188554,-0.9816908146919797,3.7640068e+06
173.3668985219722,-12.700175647144022,7.586404072812512,1.264672e+07
107.99179859246892,-126.31889845885324,9.191534798497194,5.00447e+06
-108.93550618077086,-13.244185001844357,4.424483181457078,8.776578e+06
-17.545607406084684,121.99855397321973,33.534493503931394,9.668349e+06
159.39189442628947,-88.23022635661673,39.28161119626627,2.3879314e+07
-152.82593762782798,41.309277991832744,16.59211917331438,1.4148387e+07
-1.291112605997256,127.70440605843494,26.206472468364556,8.310381e+06
-4.586488111380447,168.25239672769249,21.34176251186859,1.3659558e+07
22.15678929244004,-165.55638742302438,12.184669987987704,9.350828e+06
114.01552636797794,-66.51575825325037,-2.236258592111474,8.926691e+06
-3.649064424859631,146.3414944201923,45.077723802263336,1.3695907e+07
-16.83117072789514,-141.3253067556231,1.6648616677308885,6.2218635e+06
0.13180268967497,148.91393067528298,25.60248528669113,9.055649e+06
54.266612214001896,-174.7107740148877,17.038065458552072,5.590889e+06
110.17040471620476,123.9414873398523,35.763823221556414,8.2392575e+06
-56.904963655513065,76.61779176724161,45.40184964824084,1.4203023e+07
150.8967696379911,-107.35368878633466,-0.07620659061436635,5.9891155e+06
-125.71464390127281,128.2021006294998,39.19713121469287,1.4245694e+07
-119.3834946203649,89.3878096942264,42.88584301688782,9.670699e+06
103.18326062554888,-112.73562471813555,31.2964757429631,8.707313e+06
0.15362071079744055,123.58640535469112,33.75939201235425,8.817746e+06
-91.7896311541063,119.13469942019361,3.3807648847166965,5.3407255e+06
131.7947786711929,107.51346467328794,31.05797553731989,1.248165e+07
-91.21551986775857,143.76436222861696,44.31545396025861,7.35275e+06
-171.58925677466468,12.119873994974967,33.274519180420235,1.109556e+07
-34.18182530877459,161.28608909823356,4.710434228514044,1.3464656e+07
101.60450253414047,-49.75493726697064,36.815084258494664,1.1395051e+07
-115.9026473654213,134.78680958878613,36.28051394395424,1.2908624e+07
-133.8350352194188,-20.344199017200225,11.07335612197474,1.217985e+07
133.43081157916436,72.91981353374342,6.924555545951747,1.1175809e+07
36.80481291955036,-168.04202263624202,18.66509110035491,4.8004985e+06
27.329597530058034,-132.425005681752,47.13509059838613,1.9311056e+07
-177.32862790627973,60.66259143903295,0.4893956582148606,2.7563932e+07
26.953377213786126,-180.2350897096971,21.497274537696807,7.9506325e+06
-100.20299413602011,-76.80225867172221,11.370857542346517,7.6189265e+06
-28.253854202004362,-148.33343188434975,2.389293147937034,7.600592e+06
88.7585470916664,-138.82138193974862,31.723512758322983,1.01117e+07
125.19037607811316,-95.76862331582312,15.5660663029477,5.3888225e+06
-162.3302435051562,1.1134572618746006,24.295671554320926,1.2676373e+07
-43.28688263656747,-169.96366694118117,46.648250256033755,2.3849722e+07
-11.0563702605088,126.32426125831346,44.196723954115456,1.1201428e+07
-18.951157676555795,156.4415733604622,16.198651126036225,1.4908504e+07
-93.56070626342046,-140.6251367284453,17.901085540373842,7.9670515e+06
-61.50864123979542,111.05388091452954,32.609602298233845,1.1176507e+07
156.46143858758376,36.02425124820937,29.016624673303554,1.2336415e+07
-120.51210587806493,-40.678648868577255,32.825886231351205,1.3036211e+07
72.0761848026998,146.07687239720929,21.675412016667572,6.318024e+06
115.79887071063939,-80.17141499047678,45.39775871456109,1.6564296e+07
-143.75177267290965,-60.26156023253759,18.444696866661342,1.1311014e+07
-96.81993346682734,-108.80217567260577,31.548183325619917,1.2534134e+07
-83.72652574249972,151.66128037316378,6.992383213204862,1.4298221e+07
-13.608969988134675,-169.15867848800738,40.90065607198861,8.192312e+06
181.95834106115245,4.40401778463584,36.16429090979715,1.2466676e+07
159.73465591699107,-64.75614778291549,1.5117863999760774,9.245987e+06
77.29793193405766,79.68399211849675,-4.74224401331197,1.4478136e+07
83.3705192676926,-154.3838745353358,43.54453773370141,1.977739e+07
33.00600835588074,150.46775362942458,32.53858902961676,8.950729e+06
-95.25719971837945,-24.903607647473024,-1.9913016967408534,4.956674e+06
-114.59455242939373,52.40483637075002,39.87590171512872,9.184317e+06
-34.160699288225885,98.0671735494148,30.480131338748002,1.1464374e+07
-27.306613341380142,-162.4221708608625,-3.7453568447258685,1.1147486e+07
58.115362119553716,114.22880185085397,6.538959707982736,4.250642e+06
21.298385684912546,182.81407210646336,37.43773256235202,1.6593356e+07
-15.994988331489282,154.40379605726628,34.6579724236069,1.1564125e+07
-108.16753521351781,39.08109182824643,36.97201827007899,1.1048827e+07
70.33846243920323,114.38394882470419,-0.5806555471870841,1.1831451e+07
47.22030110184491,-173.7932979349814,25.491851062109088,1.2493862e+07
-118.58092703360387,76.6143508126097,28.362253850349674,8.577273e+06
-148.65032035220796,-15.094398995849248,30.228880597517517,4.5192365e+06
-139.89460790841582,-115.62769097355377,4.045585648322969,1.9545166e+07
-103.10332382240567,5.309382738310603,45.99166565838372,1.1522353e+07
109.90087851737884,-79.51489779714507,-4.977092725499657,1.3363389e+07
-95.26556577967678,46.63352178407081,17.306019892247697,4.690675e+06
24.380845149581717,-174.43858355279235,0.3534260440466363,8.293732e+06
62.032387684524394,123.84682318749526,43.8745796158666,7.573568e+06
33.92356658646128,104.4584658591566,21.290051211241927,5.9738705e+06
163.11978415044337,14.28394304435895,0.37518752587965326,1.4723658e+07
-61.09744477460276,136.31857904424538,31.985410448037342,1.0120099e+07
159.1190882096596,45.818878016485485,4.03647022908821,1.4720366e+07
17.306443740909117,-153.042338540637,41.7512216739648,1.0392038e+07
118.67693321259367,43.999709266780286,-3.7120099492441048,4.1939058e+06
-156.78446792678056,-15.00834492269081,12.850405405141686,1.5668377e+07
47.74402732502696,-145.58238243832307,36.74386671525513,9.343129e+06
158.78305533488452,56.67299805265436,28.7935213143763,1.2523217e+07
132.79593929532138,40.49502367915335,12.179642247069154,7.5875215e+06
80.24701108501466,105.05116871962741,26.560212059719298,8.681943e+06
127.53179967632337,-94.67682124542142,43.716299852208486,2.061903e+07
-59.609457964560704,150.10149738658032,1.8404589315597293,7.387321e+06
-57.86267324081069,-86.68495263317632,45.95900173129575,1.0637587e+07
158.3912991886525,-24.35147147555449,32.96201599199821,5.628017e+06
43.910322680490566,90.87884927492405,9.704778808541647,6.4030835e+06
-155.42030400837,-0.3583998532274677,20.83636276440614,1.3746774e+07
-144.37648991650124,-35.20694389277784,17.033770198440294,1.3166981e+07
74.9548706852475,-98.13463297138676,4.048426919558107,8.802747e+06
-55.364103280687914,91.06830475896402,31.611602343089338,1.2184225e+07
101.84425493406309,-66.56542857707672,2.5232470912694445,8.432776e+06
-127.38184288736223,-81.27783081697038,7.242346504251687,7.8665585e+06
101.39933657177431,95.71638941443103,24.04362700238208,8.3454065e+06
99.32409840848862,-121.99005751090696,32.94605007104751,7.9726135e+06
17.37482198643511,-153.95805114200303,17.583841417565342,4.574273e+06
-46.64560002996558,-160.73302314909785,-4.431970703058972,1.6404478e+07
106.84101563303956,-152.2323627148205,45.06790899837351,3.2155466e+07
100.81687816490444,49.57477185473542,47.21029305354415,8.717101e+06
120.05246605483626,-1.8980959197321,13.476111721877844,5.491401e+06
65.38789533883983,95.85242837491921,-2.5672782878828806,1.3214243e+07
-166.5608571329966,-43.33091555041605,31.774250270616058,7.3717035e+06
58.73370525547392,120.69664704831348,14.418529311782214,5.0239075e+06
95.60094059061555,2.856050575702568,28.937314147764702,1.3817873e+07
-106.85381789706807,25.55921935266042,11.542473771068245,8.540351e+06
-20.41310383699377,-168.9700620962828,0.4948447746472764,6.8815915e+06
-84.64342027073872,-88.96835912573748,-4.195041901259927,1.6423817e+07
-160.15791948558532,-88.28380140670924,2.4527530147307828,1.8148692e+07
-87.84166718134388,79.19206808612893,34.19751825534473,1.1449889e+07
-101.02731855733839,-78.48855762533789,7.110940163876883,6.1369145e+06
-116.67889598121958,19.047996425603742,8.724340474171427,9.532363e+06
47.14826058677218,-84.0628619026373,25.991228434010115,5.771766e+06
-23.902023576825883,-163.41489069482668,37.39653882228602,5.84453e+06
-37.7114181741816,141.5959604488013,45.6097053097543,1.353298e+07
-12.20582083713984,-116.88683904809167,22.397713220600064,5.7747435e+06
-110.77872802440844,28.574950590701402,31.83090783795185,1.0804266e+07
-153.35099541607235,12.065523144425185,28.257483616110193,5.1800225e+06
144.40164438023135,-78.6342176959578,39.72367315133598,1.441882e+07
145.20048259694175,-28.53245963166077,21.20676052940716,7.58375e+06
65.651246916589,-163.844708371516,3.733528165392308,9.805237e+06
-196.18705879088435,-9.111766887352502,-4.4166292637902735,3.1411746e+07
110.81786065479713,114.3002647446923,1.9152656091880116,8.660491e+06
-8.535904604847786,-165.58472216461948,35.595501498889476,7.773368e+06
-136.74432361876683,42.06833369523076,25.265667456904637,4.847739e+06
-125.30536252318396,114.29769494277224,16.087431192810783,1.3883266e+07
97.64084609690701,29.460152439805142,46.307528117346806,1.0088048e+07
-59.32556053290177,177.2789930883929,42.07613391377768,1.4629093e+07
-14.694723867889337,173.83054750395002,20.047891398867858,1.6535987e+07
-107.08567310377815,112.22745370918341,-1.5468862040240037,1.6645056e+07
-119.35052827939549,-101.22034969721393,19.861256491584186,5.734548e+06
-183.233136235426,0.0380774983567278,35.18607801208121,1.5320017e+07
97.22169107213188,101.29019610077955,39.50113374223698,8.137055e+06
156.21108833805556,83.89759576156257,13.612527909552067,8.1391615e+06
-155.37764146214514,1.4633378409504587,11.406605566496403,1.4548697e+07
179.5732665828259,-50.78799056992897,42.252766264930884,3.7056304e+07
64.95715833743236,132.4184189850635,34.162169939264835,7.321336e+06
169.4509246294288,-60.87524143568208,3.778248242266308,1.0407893e+07
-88.88459192485314,150.54632891724947,39.903570240226685,6.9391445e+06
62.98698323355285,143.05510013426425,-4.502020625971186,2.9407052e+07
18.381437075359145,145.95499255198075,29.231287612803925,8.950781e+06
-13.475876564348823,134.4278262746352,33.1621751244535,9.922682e+06
-139.67287323089712,-60.13422354252009,11.834268225914737,1.0604457e+07
24.936589935625676,-139.2393965127461,34.502006923335365,1.1609195e+07
-124.05159756323174,124.11502987242507,16.770497189018755,1.5397307e+07
-149.2188758000666,9.315231979083677,27.77419972102635,4.310446e+06
-36.493884752077435,-172.63957573059284,46.98096162865506,2.5754022e+07
-99.77023341154671,-36.44582915603931,19.6713359870985,9.958018e+06
-64.97624424071873,121.11164155918932,31.944342164858174,1.0699164e+07
-117.03915120658195,38.564921015700776,46.96904122978686,1.2776041e+07
143.58431222387998,-48.08394253413519,32.784532099762984,6.349565e+06
-35.09565008454675,-166.59755132080647,3.1053447490697557,1.2143956e+07
-156.89441728748955,-62.20730145281422,3.144762775033893,1.0417011e+07
-112.62850181646127,-145.18773267685808,6.848378653891044,1.685831e+07
-152.95023523270316,46.389703565152814,21.72461861307521,1.2492375e+07
180.251349393782,-8.182256084274854,20.237506298984297,8.3744595e+06
73.00312634764651,-96.520130360462,9.227155750754914,8.997263e+06
-7.6510691763219825,176.97888912618447,24.539796797951766,1.5027723e+07
-128.40840350644802,-101.93418801425568,-1.3594526241915146,2.0635602e+07
-97.27509884945458,37.710931983809814,23.170006390866313,7.658906e+06
-119.26189707733275,121.54029144429057,8.240697237403344,1.0909744e+07
144.51446960959953,48.38905942523425,41.40709504371698,5.306367e+06
78.29341075062229,84.33404492411773,44.531658891541845,1.1152276e+07
177.10617299196906,-29.861866991531514,39.67330593306301,2.2367504e+07
-86.24939874879244,-52.61979443419102,-3.8320472747099066,9.375407e+06
-91.0601588241811,119.6787432401149,9.371772241070305,9.830395e+06
106.18402931122228,24.797451356855902,14.980570438841026,4.8363105e+06
128.57923993248005,-123.3189857512535,42.40570140156253,2.543492e+07
65.1450485785856,-161.41892771865787,1.0591722777955026,9.988119e+06
136.28395867929163,124.05286648879114,0.3975264897088434,1.7801798e+07
99.99612375535463,67.55910758124065,13.94234163490382,5.6225705e+06
153.3795536477328,3.345002906418415,24.069890224626217,9.557331e+06
-8.984393009432523,144.68351063485756,-2.8349119126533937,1.6268164e+07
57.09932615818127,-148.6341761623147,12.629163039951536,5.7511685e+06
-62.88059922709741,162.70507962444282,26.565728299364533,1.0788414e+07
-104.41903125000329,81.26012436836135,6.926178641875806,2.2919278e+06
96.1451374165045,46.35294338187052,44.67248554970568,1.103782e+07
42.874031409816325,112.94219607481858,37.45983186424793,7.534143e+06
-64.68265510590965,-147.68414544128666,16.168370796978106,1.1219872e+07
133.74636486912482,53.296667144403955,45.510266096144804,9.017477e+06
8.011456920801947,-134.41954385734095,44.20159945537423,1.2794071e+07
155.83424620978832,67.03428439060468,17.675522957223784,2.4249505e+06
103.62831320163883,-9.348481739763912,31.987870257648844,1.5387861e+07
-145.76275098247717,-56.30832990140502,21.552826703367494,1.0893565e+07
152.7558160375687,88.00202660195265,37.90001067861648,8.010633e+06
-11.598761551509142,-89.50261681599491,-3.675116510794028,1.6247412e+07
-163.78420463367712,22.304223522715148,-0.019946394118974527,1.7245478e+07
69.05165780234228,-130.6923559110984,31.744653239462423,1.104677e+07
56.5535333380638,108.87888725786519,16.865096174834342,4.8706715e+06
114.50163459755657,27.992463109255137,6.759212012570379,1.1324704e+07
-52.70435778601743,134.4201513990563,25.927810045680104,8.310411e+06
74.60803490356056,139.4741322109254,30.399287526741933,8.2318215e+06
-18.904556477035953,180.99974190494714,30.339986103895626,1.6746614e+07
170.84205556213186,-38.29255069523856,17.470834192025272,6.3213545e+06
-81.5038148370443,126.35496498822216,10.815976428306524,1.1566601e+07
-123.79319736132479,-68.90528722539767,8.142909055170682,7.716795e+06
-59.49791564568386,-115.2145825950936,6.215290494898738,7.8655385e+06
42.404006298537126,145.39854821545396,45.55880523897505,1.3399888e+07
53.77401641741727,133.518959737135,38.443092743953144,4.8033055e+06
-62.91436187600286,-119.35664400064243,2.508887954338576,5.588439e+06
23.08258350420914,-158.30527995274664,40.73435339073942,9.417388e+06
74.78616141204498,142.73721474079986,11.566596367330188,4.188337e+06
-111.89166169700684,-4.245757617250177,45.837549560650075,1.0324973e+07
97.10914183489797,-117.9909712192429,36.83838799793336,5.1742505e+06
-46.796124671596004,81.70615371545205,47.086676065464225,1.994941e+07
-146.3463295672817,-68.59563652202479,-4.529012262607667,1.5728615e+07
132.8602026587779,106.69472580169281,41.149130039904094,6.6268035e+06
172.10184842305972,-61.601324452962956,41.3852809396919,3.1476088e+07
45.59107062390541,-127.69546353544739,32.10485622455764,1.1866185e+07
163.08900486212792,74.14637171514727,10.711666510234767,1.1267051e+07
-82.98422075069816,105.99822371889907,-4.303531601005371,1.7287218e+07
-13.269266756436993,127.43786625019628,12.074422862594325,1.1438345e+07
13.697993330963188,168.72751016144565,13.398115064935183,1.5042507e+07
-162.46737372731667,-10.87193549503263,24.155307415298598,1.29711e+07
-100.12266312770332,136.45237518538073,7.017914369186941,1.1709002e+07
173.3512077727035,39.89066804206027,46.95280042460402,3.620352e+07
-142.14285720658984,-67.76153434271626,44.6000943929761,5.439238e+06
119.29920830312261,-83.78402713052427,0.5568624335164648,5.367873e+06
169.1542799261175,6.197093585121621,19.706096001132362,6.8175405e+06
-35.47926339854155,-145.64375298733796,11.06390180672324,1.3834689e+07
29.146868642232338,150.75171897067588,24.11571921217687,7.605807e+06
141.21441572918786,53.88034551757795,12.869545091799921,6.98305e+06
-79.4175036955882,-74.51079594985144,17.751106622245434,1.0316671e+07
81.79925305194206,98.74777064118018,-3.1238027535405513,1.4357465e+07
122.28669939157828,-36.306791083344876,37.963633876246824,7.7688715e+06
-9.69984953890247,-136.96599848492593,19.869689734006005,5.6028135e+06
-30.534749011594723,-110.36929093729886,2.396530434384823,4.7940455e+06
-106.34209943299169,106.05638202237037,28.171125640821405,1.0120119e+07
31.73383333847241,-117.82721083850696,22.546826587136536,3.8480015e+06
148.57082130132932,-80.99529226813735,5.472729541846518,5.134557e+06
14.410225261110016,-164.14008035603416,42.285333397123175,1.1946703e+07
158.1909479221713,-68.08943863548697,41.02822556607222,2.2976304e+07
182.87365735380376,-28.62458313820645,-1.873655215467394,1.6925666e+07
88.2874007909931,-102.4923286450063,1.4713029306382017,7.0953345e+06
-104.2076993530792,132.72560990421908,10.212038901302193,1.3436191e+07
-133.58932192052032,-80.79831830567935,-0.7573987803637404,1.4718012e+07
87.35126387941125,-50.070406122223034,20.249384896622622,5.796088e+06
175.86579085043599,-24.403062535483713,11.122519736682012,9.38218e+06
-104.91761243985556,-24.369969655528536,32.86725074634869,1.4686139e+07
-37.953004577775175,-178.13682027149102,-1.991018297477869,9.729431e+06
81.86587289189362,101.36014897468517,46.35780688503614,1.0823994e+07
3.842620985842018,116.34779602346362,14.694302701559081,8.4605e+06
-128.14788696367194,84.17298817225259,40.183970349824364,1.166325e+07
-38.21707657034804,169.39580721999994,45.175967284722155,1.697191e+07
134.7407985677645,100.50702325380718,4.331580497044457,1.1553855e+07
-163.36573759857336,11.45688809363179,27.39304380972029,9.951705e+06
157.27278914519854,0.6487377094188673,13.213785064265803,5.8543445e+06
-125.48300282231537,-115.68274944052467,47.18265332162079,1.5137676e+07
55.05171322624896,-132.54230214264715,10.70269277631809,8.290683e+06
-109.82576591349442,-3.698464777435816,26.217963588400654,9.381847e+06
98.4182579677277,67.70656451053736,40.59510236152561,1.2079653e+07
104.04498692811053,133.2374434751668,28.154136598214063,1.0657944e+07
-143.20150220256886,-12.129578253690198,20.159127249759468,1.1493865e+07
103.71948416097712,94.00480016283012,29.965744886411763,1.2346268e+07
60.316358939794156,-112.0617549482557,38.09490626236828,9.334325e+06
36.54031102870792,115.78230860051627,14.027875499336396,6.68712e+06
-105.97648277457434,34.23627258195717,6.493836026533331,7.400904e+06
163.1584994465419,-85.80123146555066,0.2842406820653648,8.77576e+06
-182.7727097749507,11.537090132748204,10.529804365146116,1.6503699e+07
-0.4317852823493525,101.66509915600619,43.70127614893771,1.2535518e+07
105.17916278627524,103.46603239730307,7.3372748282463816,6.708348e+06
-116.5260079871604,-14.941243172961721,26.425879949497592,8.919928e+06
31.534778774104126,-175.6507613174711,37.17408665990222,7.428558e+06
-15.8031948859163,159.27850069890843,34.391587202478476,1.2364024e+07
73.08291098465031,75.08239760839331,28.074928091565845,1.0136075e+07
109.65524192812342,-37.08481041369197,8.996258513514155,8.849713e+06
-31.0571938561487,-173.62279466626086,-2.979917779080968,8.60145e+06
34.636126167977864,-106.53223507978623,0.5602837809072255,9.559658e+06
11.812401763449202,-169.09672475480107,46.49935023797739,2.4606536e+07
100.39823107036256,-127.56087996250875,11.60171048796943,4.6374965e+06
101.14165548178183,-90.81575144805728,12.683157378955109,5.2951465e+06
43.983096755249875,-99.61272674333968,37.22596123572345,1.1668773e+07
-14.390048138319058,143.49268495912503,24.087149056704902,8.658651e+06
-136.48214249659003,52.05472589540864,21.454360511164552,7.981223e+06
9.19467172460483,-178.8029175783214,7.974103893049033,1.3562282e+07
62.73145849005459,-137.5734477398744,28.9629599490916,1.1718064e+07
-58.323869351953874,-152.9860715632022,7.64214056493765,1.4501521e+07
-131.2461018013515,-85.78437038453019,34.907250480993916,1.2379484e+07
-93.1091818376728,74.94305388606233,21.04714240126273,4.9873475e+06
-27.06711750903804,101.51023072784535,0.7398159491180825,1.1716904e+07
-150.92363988836448,-32.79112867391473,42.515738820584694,7.8736335e+06
-94.76398431208692,-37.343341062030476,15.74005602380209,1.036344e+07
-58.54201653015093,-122.48411768088947,19.164116328252092,8.856764e+06
-1.9423807161330442,174.06679435519823,18.51433015940345,1.6488249e+07
121.59898263702848,66.16245607473854,43.82676061792293,5.2272135e+06
46.17467182885645,-109.04469628465381,26.861866953794653,8.484671e+06
-93.80118913352504,124.8532690936367,11.305001522353898,1.1719663e+07
130.42064237254453,33.59612440790164,20.174977939328976,4.8946535e+06
-58.809600692663146,161.48056588401965,13.193338792346164,1.8842988e+07
-68.70435511137981,-85.08184429051128,30.375190860470962,1.3627153e+07
-46.029684443823015,-137.40744639269082,22.27141526825473,6.7989885e+06
12.409520064004681,-160.47367832654265,8.836574328951578,1.2483335e+07
48.474122257055285,119.25999352295935,44.8619464962914,1.0593312e+07
18.022252111035584,159.5832068824867,-2.9262870579152986,2.1080492e+07
-65.94547698565512,135.75274669823483,40.84296386969068,4.5126465e+06
64.8000356852628,-100.10910404947539,19.029658388806883,3.1937778e+06
-104.50626633435603,74.16840600030201,13.987869990032326,4.7732105e+06
-59.70681351758782,110.99461261835619,34.37909860454463,1.0507014e+07
-64.15866944814127,138.77859068152736,2.3422638307807255,7.265502e+06
126.80572421542911,124.92668462754695,23.6082171098263,1.1591983e+07
29.30709819727943,176.71020854624157,24.090133599399646,1.1735551e+07
-115.41222691789419,-134.39529175339823,10.42645854702009,1.0296701e+07
105.89691359416264,-64.69000106635954,46.48928210669355,1.3287578e+07
10.005856085012965,143.55294264078094,29.566209508299245,9.251196e+06
47.740908288277325,-99.6744102465796,4.133330293436026,9.922534e+06
54.233313010007834,130.65626538993598,12.628633179544483,5.4323715e+06
-153.33601930680607,-85.57662405672434,9.59744132333784,1.1848358e+07
139.9166706909736,74.31313377952722,21.696913102625256,6.610035e+06
21.16357716928553,-143.57738513874185,12.822310712957837,9.271622e+06
-112.75740322084653,31.44786064829415,45.23015332989591,1.0113547e+07
85.9274148409084,46.444985440791214,34.35244246139206,1.6095434e+07
24.044052330228595,-137.55587831157595,5.476315951575678,1.1114946e+07
-124.15285997626899,-129.17065685674214,23.844548527425502,8.706751e+06
123.8434483182914,35.97277678212757,40.66732625088393,8.617692e+06
-50.48688642717036,-82.58753151894109,8.721964767284156,9.700427e+06
-108.91927932639355,-17.224126337301726,6.493085474299836,9.665582e+06
144.16024667442133,54.01509201351499,38.021835134182744,8.312087e+06
-18.625918163569736,141.3221350239083,11.06554965013942,1.4000327e+07
-142.61561217255337,-22.663052745242766,37.90713185602422,9.749152e+06
-19.16213700706075,157.39083116923302,25.847950504195804,1.0608468e+07
-113.14596338440971,142.3578432812546,36.226472612147326,1.2679706e+07
125.1733683759237,-48.16840147835103,17.818197258993887,5.4639635e+06
64.14969185558692,-173.3415032095401,16.98008061609386,6.5753015e+06
53.88367748388819,99.86570078095474,-2.7591525255107157,1.5115581e+07
-108.03648563766055,-137.6497458251268,38.989449147578895,1.256998e+07
-131.84942224739152,6.2137386490348945,38.19393884315132,1.067176e+07
109.21598198449544,-33.71675564828655,19.900778705124846,6.4020065e+06
182.0838159283848,28.2242906624449,29.83199762523077,1.0985681e+07
-140.87441953035867,-98.02057261574535,25.98911985522136,9.958876e+06
6.232143000562957,103.48959944420375,18.321460276026638,6.961691e+06
-58.9068158761466,-83.8785301297194,39.7778016013378,1.2456133e+07
34.67765743134268,-112.51578507932449,46.0417326973056,1.4757685e+07
-134.97223317768206,32.29372212797742,39.59906688972095,1.0227709e+07
-104.34992221798622,41.90428794063013,38.93991012648513,1.0112616e+07
14.453718214319224,-107.84272875988603,29.296670825762984,9.761511e+06
-145.06536369998764,61.03531256618197,36.118077665467766,1.2527649e+07
182.59161626390375,12.757043365143147,25.961707890250025,1.0344764e+07
-85.75969954941587,158.50883249656573,24.621971144157353,1.1543495e+07
98.46614369600547,152.6539893341436,29.305689895036338,1.0624665e+07
-134.66349935561416,-20.62656028275103,24.852075858204643,7.244981e+06
-91.25390948042136,-146.1973838612546,46.173255564357476,1.8102292e+07
111.28619006208993,-19.22637965420745,17.14749065074852,4.3022835e+06
18.31702306431248,-129.6195716797148,3.098997789035123,9.510337e+06
82.14458383772904,-94.98987854993052,45.0002839733371,1.1117649e+07
-106.96898382126703,139.7529099203752,15.734611224830317,1.5859147e+07
136.5084027772731,-119.76330217714461,20.855877789481283,9.48857e+06
117.33819368085068,102.28424127830785,31.678886981218348,1.2416724e+07
96.2201629621872,37.54576177542083,22.261724801556102,6.614745e+06
-56.60678498560605,-158.37238413962024,39.88612473982423,6.418156e+06
33.72565732492262,-106.20419489162373,0.929805892480363,9.391845e+06
-148.3981204344746,-104.0516137965413,5.2791757773371835,1.6974782e+07
-82.29517003586109,-130.20048149461513,-4.340069514990249,2.2513854e+07
85.85191356718929,-55.11767035012721,23.798207553976134,7.831651e+06
67.66887175089789,-168.880559694388,38.07483293423243,9.227443e+06
15.656508431306094,146.3392753512229,21.36034988963141,8.2406305e+06
40.095878621677684,-154.9941542793646,1.200143133006828,9.397554e+06
30.267685069699805,173.6297336936929,20.511928602157077,1.1438172e+07
-86.57383307250134,107.39532571724386,-4.193326989186272,1.7965166e+07
-177.15225047881117,-37.5306466221916,2.443375175741048,6.823736e+06
-135.68686016514835,12.68740676354466,36.790956311564436,9.59783e+06
-111.35261877057773,0.6401477480710014,4.664144411547746,8.904585e+06
-138.82935930804487,-70.8561146627575,22.72296008618908,9.114942e+06
-51.256183380797125,-95.07262174521962,38.312567913963726,1.2221604e+07
134.3309649436872,-117.99598607172163,35.44874436834691,1.1091825e+07
-173.48015964887767,-1.083149717703236,19.851731029044412,1.9886128e+07
18.355005746368477,-131.94408895842503,37.90699994105452,1.0632523e+07
135.4314992899421,0.23577007010450757,13.130046309989265,5.200113e+06
174.45984683721042,-13.805236971806522,30.401258251681057,6.620351e+06
-134.77398786911152,-130.50899457356095,0.11629933418849824,2.885588e+07
-22.867592791144546,-139.16514699750059,14.100620799583773,1.1687469e+07
-57.85365842978848,-149.36440289395475,17.431221709334153,1.0358252e+07
19.255857933842606,-152.78559899118585,41.31432564316464,9.895393e+06
-117.66131969696487,-19.33297981918679,41.26449398606982,1.2332459e+07
-113.03526940153361,140.30082829186063,18.535952442278095,1.5984418e+07
166.0011147838236,15.655085733679414,22.144482515859995,8.2340945e+06
79.20799403195639,-74.84733481659282,21.856332185880028,5.801919e+06
-12.005518878807436,104.59223579790262,24.369590648279328,8.922804e+06
125.50425947696839,-38.0053824402809,31.747826937537837,1.1611618e+07
-24.85152074637176,109.29176736149964,22.96433722085799,8.2518725e+06
-48.42296937379419,-162.3317855415401,28.666357351729694,7.9802e+06
-24.721016462158474,-113.84973632639226,-1.0151433970909096,7.998286e+06
-138.46071063695467,121.09491508841825,37.72477771785693,1.849423e+07
-36.47689410158375,-157.45676585970074,44.012870998926154,1.2801062e+07
-87.5314047067675,-164.25379485869263,43.27268625295275,1.6843846e+07
98.31301308456733,48.22199382568982,38.47072932117895,1.5305318e+07
-148.9224385316851,-103.83136429037178,21.818191861256736,9.648512e+06
115.81872912233149,119.56264175847548,25.501742528283167,1.0691821e+07
-55.209494607431964,117.54085871430118,25.300266311754203,8.61105e+06
-176.79019859237548,-35.148937321966855,6.966095112374667,1.1804827e+07
55.266666282555484,88.72570681679696,7.875384025460773,5.7039805e+06
-138.94700161928574,47.072354152047694,8.141640671791846,8.277063e+06
101.16284270204261,125.31315870508057,24.227881405147308,9.105853e+06
59.56516206777087,111.88679412436547,34.5607756541217,8.814528e+06
-130.64070349334003,79.30770800346886,7.419627042304816,5.523891e+06
113.34289837734667,103.24353962657506,9.884357053188207,8.332172e+06
140.99343359276799,4.8582872443057,45.97525498623628,1.3348626e+07
106.39597732244516,13.315496211608377,13.883033712567544,6.002016e+06
145.78085452527654,-68.29899118741838,29.554356924812033,6.606498e+06
101.44194759183587,-53.65021988348576,0.6294488598979974,9.234201e+06
169.57630000969488,61.91981326887299,33.32850261009871,1.0952513e+07
-66.65469630443224,128.54356222134436,42.68145648404899,4.3745815e+06
-28.89026883067589,-178.0304988515976,11.411901615244158,1.6666649e+07
-61.71112818352512,144.9434154418003,2.8541722004066434,8.3725225e+06
111.9080783996111,125.75798504055973,47.40998308343088,2.1027676e+07
-115.6282247835227,-32.17978389537976,-3.6117615018241307,5.927328e+06
66.83702761858154,-134.2248958080825,-0.15109549580872156,9.334126e+06
179.059834556311,34.660079123919246,10.328860931602787,1.2977758e+07
79.53971292537744,-132.6573370016706,2.5293530433371862,8.0026545e+06
-96.6652770726216,48.558216012494654,8.862928944025924,5.7892995e+06
96.57298486411759,88.64458330398395,41.66114754544579,8.558583e+06
134.24311247232652,53.965928588108405,12.569343337263902,7.2616875e+06
-151.07784178263898,65.15057299858393,-0.12911813520907173,2.1224686e+07
-47.5664471883818,130.34389455979738,38.0713295022756,7.537625e+06
-13.936855917723534,-154.0751425273628,1.5548582360006815,6.9482325e+06
156.25572251155324,-53.98206384389184,-4.873721256948857,1.2345582e+07
-68.23663554327212,141.63094819727746,-3.74670125573274,1.4462093e+07
-113.3101358918806,-102.78115484328798,9.42364323019334,6.029657e+06
-157.4045386057366,-51.02467358172098,26.91927636415281,9.92511e+06
124.01613325529826,17.44962589011041,19.615261836024132,4.5637555e+06
172.54996444501217,48.889881759017584,5.517453755320022,1.5988493e+07
-167.94617596652228,-20.50565851589937,21.938869641689468,1.6874992e+07
-111.53775773731098,34.32608490675756,29.035895516636895,8.888781e+06
-8.82631366132324,121.40034121740126,32.960943183856905,9.422648e+06
-19.4613400770956,-145.18897235297624,36.72060097638451,8.678057e+06
-85.34460856278581,117.61948684139026,11.499819511839029,9.946999e+06
13.85923706594946,-131.90277148052525,43.490952668485946,1.1811922e+07
75.39132807007906,88.29060001766112,-3.5049879196550964,1.321705e+07
187.15528463675633,3.76236694253015,-3.577739880694128,1.7840978e+07
101.35751690019036,125.72815509637076,15.227552553900836,7.6766425e+06
43.33301308310587,167.06687318441345,14.778360617476402,9.31259e+06
30.242455225800455,153.77620883241343,-1.1270872016028368,1.7808008e+07
-169.43111618204708,-52.539143820243396,40.014922627642214,7.3933165e+06
-116.94634529323,-77.5506737026225,38.51373288968572,1.3241484e+07
149.85813891132761,-100.40434186744464,19.522458145868686,8.31958e+06
-136.19911656345587,123.01921072885482,27.96670515017768,1.779006e+07
-19.800891734295817,-131.31623669597553,0.9538414373275586,5.210932e+06
104.06079131054832,12.722858308315752,32.14056781371499,1.6106447e+07
-121.7788432602953,12.110480978372436,4.563678425624129,8.571039e+06
157.17635111123008,-72.88727643303754,4.029923131373435,7.2957825e+06
56.836634992712106,-116.34204105151461,1.729855001253532,9.119174e+06
-35.25063198805199,-160.83314666294547,18.225131138659187,9.229389e+06
119.99634101057104,-106.9684056302779,23.206557283254973,9.349744e+06
138.04974223462062,-126.74667786733127,-3.666431518585622,8.73139e+06
79.35773764545047,81.17335442874906,29.009529568536937,1.1068951e+07
111.8939977177763,-99.86143058595887,8.02314124478397,5.0835265e+06
165.09699538417743,20.791085932834505,9.198108753158122,1.2078055e+07
46.9788622769766,-162.32770421817577,35.89623927086091,9.08362e+06
-158.65842106429452,46.42220889280401,-3.5012647689303376,3.1466252e+07
159.13759593574537,25.844313600656875,30.708713189800047,1.1439078e+07
-95.53083255673513,-35.506438770820694,26.665965661697356,1.2531001e+07
175.7259412663593,-66.11465799233,44.800345919919565,4.7611436e+07
6.215650332198351,-116.79527290340697,34.96785711220066,1.2032015e+07
-157.31550543509883,-45.80838871248122,42.83273743884069,6.831036e+06
64.31206413234383,138.6459734992025,19.242234278000012,5.2673605e+06
88.97509827116897,-96.60140082212392,3.8288647434518603,7.689663e+06
169.761232699968,-44.893621340050856,9.55671662232672,8.144093e+06
-118.34784934589493,-79.5909768816784,40.734157616301836,1.1484497e+07
10.729634191593306,-160.99376856039794,29.111020637841797,1.1116281e+07
145.45166897400492,-58.31103462320733,46.734825588143046,3.0679334e+07
-168.41441870481893,66.67058897437579,5.82349155250466,1.2488775e+07
170.06561867635799,41.697922704336776,32.32677626080065,1.0730745e+07
186.00723441390102,-21.3211517847796,-0.6685199520322276,1.7868408e+07
-98.89425277528213,88.0793672099241,20.996115262953975,5.460096e+06
89.45724248379878,112.56919762735964,36.737816765299826,8.716458e+06
-178.17723000370518,-42.7289518654033,34.40607176681895,9.112519e+06
34.87679670600977,-127.57807073829873,14.312538051275212,7.0170475e+06
168.12653089198983,-30.44627564454956,21.014864174691187,6.988572e+06
-155.14266947848526,-22.53358649763379,44.19727302534843,8.698147e+06
-173.79019727737605,-16.1810183625509,10.539651443167106,1.6144838e+07
-124.23950832694696,-88.06179490412637,7.7345195304934675,7.4077895e+06
-118.83007151861484,-56.22148476720361,1.5932347414384316,7.242037e+06
154.40129210679794,14.661678784109938,-1.2510264864920932,1.244993e+07
-39.13418550802126,105.24167590692161,11.176900283150129,8.591326e+06
-130.3166768633722,57.27904191460761,10.712636774047542,8.1280085e+06
-138.39821595451593,-106.97500885285329,41.72144065823951,1.0943348e+07
114.6339764253575,114.8054369915011,30.28966082656444,1.1736986e+07
20.033509017134406,-185.68109723982693,42.81618305252392,1.6711932e+07
127.19590977916539,56.28491433708717,35.3050271204249,1.3599255e+07
-88.53941445386049,-59.47093377304199,46.62256961610376,1.0533863e+07
77.83989140903407,136.71003156026717,19.456386863938878,5.932895e+06
-24.1804841816693,-159.8424555411313,3.2059733913604163,1.0375601e+07
-122.6131945837949,106.3244384574359,3.74969602544824,8.479578e+06
-42.94097616144143,-139.49593137193617,3.4076544545092697,8.072144e+06
-19.807649571699216,-138.7107352700245,1.3861940585600576,5.6081445e+06
5.112450960807848,109.49509461350569,-1.697053759822967,1.5333745e+07
-20.227166403638194,99.79740989339183,23.364410729518347,9.022185e+06
147.12376984390238,9.27212738503087,0.44925578621797435,1.2784732e+07
86.23045213473756,107.54173847381499,-3.857568297005047,1.87851e+07
1.4009341735342389,-166.2978209920725,18.189382204675393,5.9517725e+06
-106.75723775110075,-125.8611686988282,-1.279340092994565,2.164892e+07
33.43433999130028,-126.99491940818311,24.589911597230564,7.1419395e+06
166.1501337791314,49.61738747015369,30.57304305493424,1.1945156e+07
161.14289304621116,-8.71029838678848,40.23455073121651,1.1087344e+07
-29.514562436722514,-181.74150146543596,39.91496592994182,7.651173e+06
-35.72799241180368,-138.866383361352,4.653597273571143,9.597547e+06
113.94468650452937,-7.230615868384632,13.75420797821911,5.5664905e+06
-145.45772242075213,16.948547625313637,8.228282348259711,1.0893862e+07
-67.13440715843734,-140.22955627481622,26.752665121131525,8.075209e+06
28.617756278495275,136.2130783708908,0.30797021874317454,1.4088097e+07
-128.39779533331563,-75.58256388699132,-3.82881264850362,1.5719737e+07
153.99843307877836,-38.04371417436033,45.923477168954726,2.8513838e+07
49.98600183130338,-89.86675387627585,0.4025573079425795,9.689123e+06
-85.94487328202827,97.39739139029234,27.513748917222653,1.0015337e+07
-6.726424032486334,-130.9687668398396,43.916965983166335,1.1465566e+07
108.21044095964042,98.42675596953876,42.17447597530988,5.603397e+06
57.136499597318114,-123.18281279526202,31.55296891800677,1.148659e+07
-99.78330146367477,93.67196271639835,9.959555447100062,5.611309e+06
-1.4342968287652411,-173.28162217062743,7.070552022796441,1.4269168e+07
-130.30836188619065,16.00861554480332,32.8961823893584,8.131346e+06
-134.94104750198082,-122.43457540940028,31.86948175838488,1.4118595e+07
-88.52872474542694,89.20119394570236,42.12560676683029,5.0558915e+06
-158.49409599743012,-20.932974381861982,14.315197674563905,1.6414639e+07
-142.84728109670448,-104.07058017100796,45.841352960591834,1.1846446e+07
30.689114858437787,-119.2922451268338,-2.331498597526026,1.3137044e+07
3.5286523810434858,-103.90132384287978,15.423044531034614,9.614684e+06
62.29685751327503,-91.12228405979278,37.83498557013597,1.0877481e+07
-165.80695604906114,78.92581772133053,42.5275549423826,2.5210568e+07
-178.41371599027568,40.17292977850096,3.545430919089178,1.5409105e+07
-177.8722038650446,27.758302809508706,4.125303602377778,1.2630423e+07
99.02413762445906,-41.93588337731589,44.34822696138993,8.811789e+06
-3.1561284506215936,-117.80427869210537,3.8529014413971567,8.79325e+06
77.00092689433967,-89.71014729597826,-3.482878762909328,1.3596035e+07
-51.04859740232587,-175.2132081868425,36.682932384032895,7.1770495e+06
59.80151512118101,-154.17859069252302,23.505745472025204,1.0211887e+07
-139.83467069399774,90.90422987582576,34.757981987200814,1.516208e+07
-119.03885905198206,-31.137830254926513,42.80708560063931,1.1125274e+07
145.17436531328985,12.639335083455846,19.655963675867607,4.998677e+06
12.988886083054751,115.86094288691385,3.195092561836873,1.1482878e+07
-78.27024832441634,-121.67605701655528,43.658236266493184,7.689606e+06
77.76593026032725,-109.7298093487295,21.029269131909047,5.718924e+06
-34.34934836674449,112.66146299441813,32.809762937050635,1.0613801e+07
166.90809795003133,-51.56884384481256,-0.8047573434364893,1.2211119e+07
1.068198889011029,-126.76281061001653,20.89497937467165,4.419775e+06
86.4059812939355,122.70599517176095,15.511406324790833,5.5357965e+06
128.7697821864578,25.195727850002697,43.14783662578752,2.9548262e+06
111.15463471050106,41.22985155446622,43.38243634598009,8.1738445e+06
-107.65284084087195,128.28791397612338,25.058479025583637,1.1168895e+07
-90.6634485444433,144.01308870632243,24.6787547124667,1.0030584e+07
86.01594231004646,68.28940452413264,20.029159802250767,4.24999e+06
-70.81489633903692,-102.67878689007408,22.911665788673638,9.192894e+06
-173.22297488214173,57.68811891913095,-4.46034474062248,4.4357492e+07
23.039296893547117,104.90526353343046,4.227204371030019,9.855029e+06
-172.46380295252993,65.12549415230592,43.252432676012255,2.65836e+07
23.554986913270824,126.46310997893481,5.024582194189957,1.0091636e+07
163.52731416712936,45.0747769830416,4.828083094259288,1.516776e+07
-108.14468000882695,-126.08343165072075,18.617274549107155,5.377137e+06
156.62051720718046,15.890748981791889,24.406724129482225,9.886984e+06
110.14307878723713,-129.7574321882757,18.533665804178693,7.848358e+06
126.38557913231153,-78.9630171632273,8.188071450528279,4.744691e+06
159.3477449513582,45.47980650606749,34.42504975387965,1.0168878e+07
-107.16664848803066,-126.53847041144282,0.37363090652068215,1.9235002e+07
-76.33992809896672,-92.82328403463795,21.542394738564028,9.544673e+06
126.71529426064627,77.5536254095482,-4.127561474985788,1.0482623e+07
-56.723777240418116,-155.25316680231037,4.48745507144185,1.309942e+07
47.353733533020346,-154.6585718419007,15.854365349973488,3.4560908e+06
-137.30215385345548,-61.15299172630978,27.764993374717193,9.031456e+06
-180.66493565082257,-3.529056196094416,40.379119335836265,1.6627764e+07
-22.171568037006494,108.82899560864023,36.04430619755552,8.3534285e+06
-99.58172060089625,-110.58594474320667,42.06081380894854,9.045437e+06
-179.77271276759512,-32.21109450999066,12.40828465294836,1.9064116e+07
124.15566570248922,5.554778688585145,17.36588890650425,2.8183462e+06
-168.32349057613766,-76.54750092447102,38.47330355474769,8.675344e+06
44.55435077821025,-81.41018187877127,14.34755948266642,8.703392e+06
-143.18063803719556,111.26230542271196,-1.1917430276479686,2.9398248e+07
-88.12829170636269,138.20863944958484,32.97052796716154,1.0028933e+07
160.54767853213298,14.591199155525544,-4.061146546031489,1.1522026e+07
81.83503264699141,98.41430324245795,44.284017589788824,8.670722e+06
-95.74982779544032,82.80367797651121,8.376128119288506,3.4909862e+06
118.42925611470321,-1.1436432109549628,36.495016177541714,1.3489379e+07
34.12692612570646,163.24949827286923,38.38421817590449,1.0068245e+07
-46.05234538694316,116.99522255020725,22.25487388672837,7.2419985e+06
-26.838833552028117,100.37879619189891,27.023763602658498,1.0671497e+07
-117.99258544567381,115.04648914418232,37.15099106762755,1.2079837e+07
-84.15780884350932,126.52639917989319,26.149142208963656,8.531699e+06
-123.92651811134726,-75.84194508992263,44.03911746635458,7.702116e+06
-182.17313059627895,16.27163013795584,45.604077488394715,2.4761848e+07
90.36236719630762,-72.45930679553445,28.682755550361854,1.0832889e+07
112.46388763542045,89.74170759522713,20.127445047404066,5.4256495e+06
-132.97401812774342,38.230619394028054,15.171586126580365,1.0197504e+07
-16.9412515766968,-166.2553186049303,16.991659349180935,9.119914e+06
-121.80396034488815,38.11107026648014,2.986055771250456,7.306476e+06
67.86545319204077,-136.96821854107912,40.55471792593937,7.951565e+06
101.33068486643725,41.96962149011276,-1.2385270495183318,3.9526068e+06
104.48511859973348,38.39342851482064,23.271964991596434,8.2569905e+06
152.62932174002225,7.712781162983134,36.29206138335953,6.7956475e+06
-89.62892720125102,-127.13056827678595,46.45504735527784,1.3620515e+07
55.88432647995622,168.73123513795036,40.67242838590161,1.0518147e+07
64.17398070353676,116.40144502305168,34.64546829538808,8.525862e+06
-17.52724134909633,126.75471086318697,39.55204004099722,6.7942005e+06
131.09365793544066,64.68801888295553,26.43310222661036,1.1921178e+07
108.5983991680216,136.48539939586902,24.357342434592606,1.0840402e+07
111.94939479179868,-98.988153656981,12.225716123572209,4.3258625e+06
106.41166437304952,-153.8202642156022,42.7727571311616,2.5224372e+07
120.35675550637869,-10.42592179237522,8.242920252195091,1.0129671e+07
132.87139121929908,-10.705396521595873,45.59731718845895,9.889659e+06
-1.5117192916479212,147.32855862624768,32.56873000546088,1.0434899e+07
112.85626192858274,0.6480318232726745,-1.3895794845538854,9.328017e+06
-142.03044300899114,21.397228306047367,3.6071416205636817,8.652258e+06
113.82453620974206,-14.321529584375838,7.22999389619336,1.0674233e+07
-156.33196601587275,-98.02738445645728,3.258076413901279,1.9603942e+07
63.37567874043606,154.06641911224898,1.9141240044818035,1.1826027e+07
-33.648989692506746,181.975808460525,-0.3034976623186497,6.3156475e+06
144.89689997072531,-39.490994544990514,45.48226722016239,2.1526218e+07
-4.55147230379805,-155.4669653556058,38.70495874914361,7.535123e+06
136.315617051117,78.50136571587768,22.904856883312736,8.1152605e+06
-52.180137701823355,169.71032452042107,2.451681825250448,9.784255e+06
31.548328164299676,-165.89547651926515,33.06332718229,1.1069731e+07
-110.8288881646942,3.5541027178242075,47.29488408322799,1.2059324e+07
164.49214269721386,23.5337816145167,30.96918906583933,1.0626487e+07
66.97754667567472,-117.4410189782653,30.16630388376568,1.101331e+07
51.203626845279445,-113.37872554949601,6.068376800833386,1.0328343e+07
-68.58087228009765,-84.5836790758327,28.544927948728084,1.2787898e+07
-158.3210978489334,17.543285023585128,17.74537403119163,1.5885902e+07
-127.28311009958509,-96.38624093599203,41.065107679368154,1.0235139e+07
-165.8287487882027,-66.41164487363179,46.14128467236669,9.720839e+06
-116.96746085365066,6.531727672437312,8.210362948348658,1.0137195e+07
179.54628901226226,19.990942908099157,45.762896684867385,3.7118372e+07
-136.6990413690928,76.88735812424545,1.5212284459058252,1.3548812e+07
80.06822062230623,85.65078579360267,23.07272329171755,6.4732095e+06
33.89043909573468,-160.84295533086657,26.727353449170284,1.1464388e+07
142.96359646146522,69.6666466104827,23.240551694013792,8.513555e+06
-19.390633752311174,-181.28069655474718,35.316105377770356,5.881066e+06
-126.78077832873402,-123.843042797438,28.223653926308245,1.1861503e+07
-49.73399614306496,96.6242218966168,19.235567203084155,6.165129e+06
-45.72335903856896,-103.73507008656357,21.41865164995957,8.940348e+06
59.852556494669436,-148.32040210515373,20.624716637346047,6.7439e+06
-57.015501720017426,141.37044058992257,42.90526042694788,6.642856e+06
29.018442164586276,169.5979027409261,15.30735661151947,1.2281464e+07
101.7366090041412,-11.957901092323539,14.83079053956874,5.629833e+06
-120.78324753961257,141.22029846307663,-4.885326149761313,3.8228984e+07
106.28484439602069,61.60812723524833,46.38098666175693,7.5492655e+06
-0.548945910166708,181.78462849067012,19.0821364368748,1.8142206e+07
-120.87255832003704,-143.8639766868842,-2.647029706184989,3.3163398e+07
135.9900923616102,-32.52096331787638,9.700226503079046,6.9486915e+06
-170.69926161039012,66.70233067842696,44.213223418374206,2.6446332e+07
17.530247324488755,142.49854109254596,43.65909916999572,1.0225916e+07
45.441712067175644,130.41818831947694,3.5424268389877374,8.280462e+06
123.88591084930391,61.27892498576125,13.940787707595845,5.659059e+06
-129.7880118153408,8.727127453080243,17.20875806470757,1.0344977e+07
-114.59543642844329,31.804340870857654,31.04668510929255,9.591834e+06
140.0936687134789,-94.92454266192118,13.438078083863262,4.940632e+06
149.05280394569297,60.09765088094077,0.9544274569575083,1.1356026e+07
59.16347263071299,-93.46900817435859,-3.860940192698396,1.6067549e+07
-99.14199838584285,-115.71612419085828,0.707441090048744,1.4236896e+07
-128.17562853673397,43.84300416526389,12.584694286268025,9.222942e+06
52.39526134014264,86.83238883729933,37.87530314021931,1.1462366e+07
57.26724932441237,90.04533576962802,6.429961974104403,5.3095005e+06
34.266740080838844,-158.6536746222491,19.730369311490463,4.717062e+06
112.99372835276394,-95.14501203318288,13.48162332130476,4.3798585e+06
-54.78527611971503,99.4021533245716,22.906853660874944,8.233288e+06
-58.652915820305594,-171.11543506894606,18.30090586761014,1.1452007e+07
-112.44261937205646,-90.11757080671705,20.47218394466495,7.0459535e+06
136.6155934998352,-27.104085864162013,31.352243692604056,1.0971218e+07
83.41740797504633,-44.62931888659131,27.35674648302412,1.0397034e+07
-29.712142088243663,-95.45925148092738,25.34602970378032,8.863625e+06
-102.45505426398704,53.04967467241687,3.711797310684965,5.19137e+06
-5.775475894903167,-129.87414756082663,25.490135956020236,7.2790735e+06
-28.56472521802803,122.79233313389966,26.623040396451753,9.25829e+06
11.344140167769893,144.82910091519017,35.54900220830497,9.102135e+06
-129.4864675152865,-124.21611788738822,11.567282865717559,8.22898e+06
120.51350052938795,-115.25974722747785,40.521218903274,1.4385142e+07
-59.32625570143978,-163.56818898953526,21.732901033637965,7.8605945e+06
144.07287551855086,8.713031545084505,38.07243271370899,6.2812725e+06
34.11110801125966,137.99634013350175,10.800673665493553,8.518482e+06
106.14209822354303,107.76969929419909,40.92088497813398,5.1833e+06
23.643883564584513,134.18160373750646,2.3444164397965466,1.1695002e+07
115.73916814157371,8.705493217062354,20.85926861724993,6.277063e+06
-104.39849327431978,-33.65552003613735,-1.0076717486638913,5.546806e+06
34.64713692985043,116.2945825581026,6.319420227429364,8.0724435e+06
121.83391795358602,130.43159689411777,42.26974884571192,9.024999e+06
60.94704637990873,-105.84304240894275,-3.4028141229181132,1.4719815e+07
-18.35936433405209,118.95368555979218,29.082605095492934,9.980598e+06
52.87296256501941,-98.89025091329432,6.1513725647609725,1.0382422e+07
-126.55665467381323,-59.476781394710706,5.125572027010773,7.8625445e+06
-144.14387181158935,-2.0821728753417688,19.22684534124216,1.2136299e+07
-86.05938532939281,-88.34684054386597,-1.203711079068149,1.0557284e+07
-127.3082721327115,73.65114159355619,8.08467521765158,5.411806e+06
29.537710824574674,164.21198908514788,30.21470319451371,1.0643684e+07
-148.22237540330042,-35.87144357550801,34.34128533872223,7.670166e+06
-175.88111890696197,-30.731615922487748,21.023484571424362,1.9949198e+07
-88.54812159795893,-35.96653994054054,-4.374172872704911,6.7287525e+06
73.07843277527013,142.37750150381243,-1.6031065541148612,2.0345272e+07
-77.2101594133042,89.81802461621385,17.501391126873777,3.7787498e+06
-107.60084180984086,132.18584343081335,-2.2192557566527573,2.1194656e+07
-151.27919659657812,59.056043931919646,10.79611741283876,1.0960341e+07
118.75705285340865,121.88149641977395,30.26448513616676,1.1784728e+07
-164.26759347035414,-55.820613127182874,31.49742411813774,8.2051895e+06
-120.01562606210139,-131.2458391352572,12.35259904106146,7.828528e+06
116.50374852469054,110.71721755977393,32.02313622898758,1.179042e+07
91.73363028297086,135.65023529988645,29.89097324792344,9.509632e+06
133.3532783111952,92.23448688860071,43.468091306257186,9.072872e+06
164.8400112259323,80.05109566498254,35.76741893598566,9.660098e+06
137.0670858919753,33.7560679373743,18.91604424591729,3.169075e+06
145.4626379703048,48.81237459234126,-3.961722470088993,7.264917e+06
129.61522295787415,-33.77198669575924,34.23814362611562,9.900448e+06
-42.05338453598887,147.41134786643454,17.631580431479293,1.2586367e+07
-58.77561543621127,111.25803867521631,20.307391144895828,6.223123e+06
-119.44529659645985,-82.5500171323574,3.604996052793724,8.979845e+06
177.0978029335276,14.389990321359164,19.654900893280956,8.052066e+06
117.03061942404213,21.56688344400189,0.1902289078286362,9.23796e+06
-30.753742469967932,147.46212635586744,22.632248380819863,9.370759e+06
-109.51647388091263,-141.46561117652584,35.52696989067328,1.3830156e+07
-40.493031378557646,-117.58566426505487,7.27304919123112,1.0192084e+07
111.80604838217249,17.44261308181504,34.25910968212181,1.6054494e+07
69.16314604718389,98.2670267241167,1.8470798586694843,5.0276065e+06
-2.979784744710912,174.4041549610917,44.09982319541153,1.8279248e+07
-12.070084329145459,-121.82281051323848,11.315663856483887,1.2331983e+07
-172.23916395823014,8.479043691976415,13.094875612710549,1.798684e+07
109.22167554088628,140.05156363571655,10.470567058471982,1.1666537e+07
-8.110395778037912,175.3271288264566,8.231343495673901,1.7533622e+07
-111.77633874593388,138.79171508315864,38.10789769093811,1.1279764e+07
-99.67470438282824,-154.2401760032475,25.817803971330587,1.0330057e+07
136.2616390211063,-94.60435751167667,47.45445606444721,3.7968464e+07
-97.28656244221266,-92.48648047844074,3.4884620130472217,6.8212785e+06
-126.12858637719077,-74.5359505607222,26.40638271219159,9.460745e+06
-100.7270898373735,-27.224397827269797,35.39793606248869,1.569307e+07
50.39519221878055,138.1673185506126,3.440264129412897,8.034348e+06
81.89354236652969,-115.33715233818738,25.153366131843644,9.323989e+06
28.893306905095784,164.7267193881437,9.319916261212898,1.0950382e+07
100.61160450985386,-51.462166954147555,14.355663966598124,5.969479e+06
-112.06292337096224,15.231604901496977,30.633131110343673,1.0594279e+07
-77.79699753696585,-56.94532979136474,-1.7967817706416451,7.648862e+06
-157.85656983419688,-43.969338161601485,16.831727077409287,1.5669634e+07
-97.2221054440471,-149.2420329488532,31.899819200952493,1.2445653e+07
-101.19316218907976,-39.88804669849725,12.463761841372868,1.015581e+07
115.97661227903451,14.382505061941572,12.773430230609307,6.753163e+06
77.80623866464407,-162.97155367468287,36.41474119715654,9.097846e+06
177.80004203854526,48.05737794747276,39.09842309665935,1.3815486e+07
-113.14228450311714,-65.39135057618526,9.580918434109783,7.833092e+06
62.32459690529447,123.45902947253029,3.5130442390929764,5.6887615e+06
-167.11281797272312,-73.85307952661404,5.538449099013203,1.4045143e+07
43.54076385627147,171.75408383238408,13.534258881836283,9.7038e+06
104.5430352654422,35.26045916322059,34.53422289030231,1.646699e+07
170.5393065635812,-69.79877195160427,33.7706025138564,1.1480031e+07
93.58556902326376,-68.45653100862975,22.975422178657833,7.9675195e+06
-77.30974232571302,-142.0769502239849,21.483331294951945,7.4361835e+06
10.490567382501098,126.5449802701141,0.6119478152321489,1.3537871e+07
-109.02031702591435,147.0911853161748,31.562157350217987,1.2895425e+07
70.23322057267183,71.61230859923074,13.44583257347632,5.788071e+06
109.14494094417451,24.887286443336222,13.032359198350385,6.7666945e+06
160.3961455056757,29.703432961563834,22.05417494324663,7.894365e+06
81.1104328986047,161.32804436532587,31.89500341646292,8.738548e+06
65.18704889967995,-101.82039774338625,16.432053446418653,4.383992e+06
-129.69053121653826,-68.05381200073774,31.18994653179736,1.1329662e+07
-89.58356195881936,-72.73270135775346,9.780958825435016,8.027289e+06
-108.89979619173822,-135.8179488688507,42.0667349390263,1.2336089e+07
-132.04916329355947,-114.60777397371817,12.109273636288929,6.669972e+06
119.87207229257393,-21.033235181509156,17.456082417306533,4.180718e+06
9.773454628118571,-186.53263450239237,0.5378974242435253,8.1477585e+06
141.11796677375162,49.39295494405198,33.14787021383356,1.3314975e+07
-119.4459679420142,-56.78469573728657,27.494448666974307,1.0449385e+07
18.85644836193819,-156.64762685047688,33.105489441774225,1.1267202e+07
86.06557521104452,94.88511875631713,43.364491445125395,8.321334e+06
116.50540257945487,92.41614416043171,37.492184319887556,1.0064486e+07
-65.42858281765155,146.24613623033957,2.5652382729371377,7.8696375e+06
-70.3425453421311,-133.11584298765564,11.43228113670844,1.158216e+07
141.1979863636506,-86.4885358763356,3.025599948620414,4.5383245e+06
132.04733248459274,-37.48396927497541,33.952691308523335,9.174802e+06
-23.295614303387822,-182.26068460908377,10.952211311200658,1.6841064e+07
-129.71253788108868,15.983124206207805,35.75754502248211,9.913187e+06
-23.473875502379173,172.56265049329744,20.895084698147848,1.6043298e+07
-20.004072017848614,-147.01375032032502,3.138523298844442,8.660122e+06
133.5474575557858,-38.756773812339674,41.91602029481268,6.302343e+06
106.85790914157815,141.54082577134568,46.223972810979845,1.9606706e+07
95.47245137520298,109.458509805924,24.565201191349757,8.417615e+06
97.4356235270671,34.846250300588366,31.311357734076005,1.5579214e+07
-99.53871248798296,106.51937333401065,6.242290429469791,5.001026e+06
-141.60875695302553,93.8495429637938,19.114573736949406,1.4526983e+07
47.90696375512567,98.60137136022064,-3.64302598591202,1.706696e+07
-40.177813073625856,-162.97890591830958,-1.4374695511017461,8.430091e+06
149.1283113221716,-23.999427259946003,46.31826663120628,2.3671264e+07
81.78706029193393,-95.75909738907184,15.017750741413188,5.170533e+06
-140.13976476565267,46.20592090686296,3.085072764794103,9.198795e+06
-132.25374022818693,-52.53824270246804,3.0031167491744077,7.6056995e+06
156.7753722460011,-85.280239332628,3.0275563042222173,6.758219e+06
95.47059504135854,-8.167788382634598,-3.6072406384047597,1.0556534e+07
-156.39814572058725,33.15937548265228,25.523710117899046,1.0169072e+07
21.683440206279897,96.29043160125701,47.21035491977057,1.9797582e+07
-126.37122725832461,-118.5771320578377,5.203353173551725,1.5146855e+07
-107.14400051324064,105.07561494774598,19.820834805787115,8.600114e+06
-68.7394296387294,-129.38464180226333,8.013500342890513,1.0456514e+07
68.87682540718617,95.84848400603886,36.36517276046303,1.098633e+07
-42.65725809397307,-98.81297737079748,27.14991440390943,1.0295386e+07
27.84984083155061,-166.55722146749315,12.184497124651259,8.616359e+06
26.565821341150606,158.82684193199168,-3.9444586673818436,2.5361204e+07
-128.60028459975928,108.27369776781563,11.56481132018438,1.1712046e+07
-136.87109322488223,116.52972010609182,12.655089011339161,1.4875193e+07
94.66036002938904,-101.48360147626691,34.43922868193237,7.8967625e+06
-147.89324896495737,-55.310635086009796,30.313526402538137,8.2833685e+06
163.47026811484182,41.95298819996384,-4.664157780734033,1.0542049e+07
-121.79786570150392,-79.94910744832123,5.836444257849081,7.7075865e+06
-113.18926257564583,35.28745214107681,30.566628909411204,9.476181e+06
-123.2422496310921,-47.95606168462507,20.04163437792001,9.140348e+06
-69.46875007445482,-82.56952326847906,30.937513342241434,1.4022066e+07
97.44374717757233,145.19923483351909,11.034885467750424,9.149161e+06
-64.52108775274158,143.74165658005637,5.389349544956718,1.1407911e+07
116.6364416040156,79.29575701308619,4.425537042183248,8.0769145e+06
-73.40659044840811,-125.15695370184439,36.618483547139554,1.0371566e+07
-64.30401303669996,171.95872165810613,40.77453695403134,1.2274562e+07
21.78952824482198,179.79832651739292,9.04314441404184,1.3745032e+07
-71.54647828133699,-69.96457129994008,44.545414343973846,1.0749765e+07
37.09758550021559,122.09528512158789,22.370567902691047,5.8415475e+06
-104.97791244730381,-50.452810913556824,42.664647363039265,1.2084365e+07
-38.679568387054445,-120.58649488325055,25.93515309487793,8.280566e+06
-64.60588937541195,128.30196094032914,18.85704180177771,8.417685e+06
-14.827364035733895,176.27663546953727,35.523729043180715,1.619386e+07
83.64385311903101,-136.6197917935076,13.588393275308402,4.1979635e+06
6.702171394436192,125.78133872038866,5.241704367973056,1.1477682e+07
-119.6845768711396,115.83712166776559,33.835538891197665,1.3163625e+07
-60.29907730257099,163.02848814950414,5.80945611106265,1.4889172e+07
8.126035158107612,-125.20490037077714,23.418050585521595,5.1607955e+06
-41.38189768718857,111.6636832896931,15.936980072201004,7.298329e+06
146.8085189701403,-26.149550104814466,5.588709902927821,1.0639868e+07
10.015223280381264,118.32530441182915,29.74904430430102,8.672511e+06
97.9945742375993,-134.34223600575393,14.303677646894663,4.7020915e+06
-148.09578778988612,101.96693234506648,42.01708890059166,2.016344e+07
117.08618107473394,118.09899689173346,33.10374016590085,1.0914468e+07
164.76200840660613,4.238986272006798,26.101002139259695,9.845584e+06
6.709658204139259,-128.53566708074936,5.448439207448719,1.0899e+07
-84.98646897344568,110.3923713220625,-1.8620199619492706,1.1584918e+07
81.95335600722228,-126.77285438424785,14.098201154823915,4.1103488e+06
-8.88351033326731,-159.44873041746618,22.956993665425312,5.9379575e+06
-8.992221621227912,130.2018100017009,13.782618850406797,1.0967221e+07
93.830332420165,124.22825246539202,11.147747020930403,6.1379615e+06
-23.009533523127857,-164.1047357904846,-1.1838269700769906,4.978497e+06
-30.4072933362161,-161.1024569259479,44.537295070577805,1.5119714e+07
101.46636033720824,149.9632040249885,29.27755414727575,1.0862929e+07
-96.49748551270498,-114.64718408911784,25.209660487169447,8.799763e+06
13.067857629872378,161.70299134710598,36.750404123324024,1.1512167e+07
-101.35481862208944,37.050731333193625,47.20511882356885,1.4426734e+07
109.87467480576794,37.46332615517903,7.20949502907804,1.0723154e+07
84.39138202388739,-151.511013368516,33.65558040887579,9.681662e+06
50.38436618967248,88.28598957681095,4.545078965604502,6.1129325e+06
114.90882981067818,106.08113121898988,14.902938649279307,7.1596265e+06
162.76309828433352,-26.58699542549283,46.93853114817674,3.594912e+07
112.97973809580878,34.1716379686367,12.912637831812287,6.8045465e+06
-146.04780955302968,103.01056252984779,39.80404769791273,1.9283676e+07
-21.552944732892826,98.12865566429934,6.5680833562419805,1.0127433e+07
84.98141593799676,-65.95568453670131,5.493020843381875,9.70221e+06
-77.64286419065863,-66.5970315468515,17.242722939338766,1.0774544e+07
158.47336761384958,-76.99238677444708,46.12148614220095,4.2677428e+07
158.79643078152236,-26.50103268150059,20.662852229397323,6.860346e+06
-46.55687556805273,148.34737504283197,9.606263135134167,1.5687905e+07
-26.29291238365616,97.36150681182534,21.299046567363515,8.169685e+06
-48.10246043204174,94.56014005945121,40.31038851543124,5.899692e+06
-63.429233304175966,-86.24668745946629,26.698206631687498,1.16842e+07
169.59615369413103,17.539885463813164,46.73178115932727,3.383467e+07
-93.24389067643094,81.12308525923339,28.404068955728896,1.0453115e+07
-20.88990426451346,160.18051616241263,32.693729765520814,1.2482161e+07
-174.95008514765695,-45.47677452765262,45.75553342193902,1.310216e+07
117.283867403591,-111.40894693816894,44.90601669931112,2.3902012e+07
-50.83133760478709,-175.51867918173548,19.25106506616004,1.0423994e+07
74.02755740466358,136.49464048316003,-3.624374378222735,2.5627372e+07
23.484927603524227,-102.44985879592491,30.325931477856088,1.0223225e+07
106.3483425640516,-15.657344132736652,45.623354248586665,7.702718e+06
96.82632931938923,-1.3279596726502803,12.636003110072775,7.7333115e+06
146.4308005925252,-60.29899050548496,23.258908490634827,8.573053e+06
59.36105845235306,-168.83829202679203,10.438072169592791,6.9951555e+06
58.502490073710646,-143.87761705911032,46.23379681507909,2.0651954e+07
-108.44823166515907,-107.4213982080738,11.313453758042264,5.6360955e+06
-41.23983907480172,-163.1158779424385,22.719171001202824,6.4691615e+06
-179.86235507516452,22.723598720451747,34.92129353229196,1.7481914e+07
119.7678363551198,64.29435988449211,41.76314231125119,7.1087725e+06
-181.38097096966015,-4.1914032944358155,12.77001903145283,1.9526312e+07
160.92893423129635,-27.729998704275204,6.908684407770532,1.039169e+07
83.4570786205997,-85.87796798542047,30.837947070725207,1.0808113e+07
-57.15869496489918,136.4864726242722,42.070426374622585,5.3549615e+06
-79.8745474462022,-93.81671236631823,6.492228900595782,5.8557325e+06
29.461166733253208,162.20849872524002,44.73629834793585,1.5428545e+07
-87.70925912924015,-155.9098596513274,29.008464132097178,1.0701143e+07
116.61782752731638,-30.7003186689299,32.81041848471364,1.3115647e+07
-117.94319335294468,-92.68986121693304,11.335229000416422,5.586093e+06
-119.72108844529647,79.87493744110492,23.606315229763087,7.1527705e+06
18.123629773815907,-162.5951489497127,22.032337275027523,6.4128285e+06
17.242137843871973,193.97782150988996,-4.770887206874059,2.9075174e+07
126.33944669529666,122.81896332555256,14.247647591942943,1.1616019e+07
-92.7982196825758,-151.8815258276175,32.16322916266748,1.2092818e+07
29.180896364865703,-144.46604387605322,15.080913647557228,6.0051965e+06
-131.30843982902707,-20.329218909943677,43.12033840318564,9.631569e+06
-139.72781165837924,5.523474481416599,10.34590592498451,1.2261407e+07
136.85583916771986,103.73451511147607,25.601714642152047,1.1267114e+07
-139.43323059876116,110.68363118180235,14.322542276585546,1.523543e+07
48.904098169011746,-176.10594064433144,29.38490507815349,1.3122279e+07
146.16858435916026,98.06398033020429,22.622809109478577,9.058472e+06
-136.21701454653243,118.03169010471332,3.2537034941140828,1.5237029e+07
-182.56442119134664,30.989918832895167,-4.983176395062574,4.26087e+07
88.8096591394152,16.150875817525502,42.243542196610115,1.569008e+07
10.564668198570217,138.94875635993765,0.019739194681649416,1.4249504e+07
-84.6490367981215,-47.74061521617517,-4.865012795246264,9.822641e+06
-172.0754535883966,-20.75704829402136,16.441989855262268,1.985065e+07
-11.424166660639031,-132.44252952717062,7.884543924362674,1.2354974e+07
-55.635222584006215,-145.99099940977607,17.553433861458647,1.0069343e+07
-98.33576795782801,146.5173134615858,41.71846067397661,6.702711e+06
48.12332995697997,95.77999465960539,33.72902964164459,9.527543e+06
7.421311483731956,-148.93818301838593,34.20069382901593,1.0929567e+07
23.925284553646634,-97.45128990913705,47.2646737301517,1.6625994e+07
-12.742004208590005,102.75422495776361,2.197273917724341,1.1956006e+07
-127.44924983213872,101.06916446633704,7.030843598934743,7.278135e+06
72.56032117618798,-162.48626638774914,23.133488269614492,1.1748787e+07
-175.21330379772894,33.961280791582396,24.927974813003058,1.8706522e+07
-128.3948734926342,111.39777605653262,24.102970575479798,1.3673962e+07
69.34693652038203,107.79295359713205,22.760910798768535,5.900994e+06
-136.00741375666186,18.167158904562257,9.166035191744514,1.083593e+07
118.11735868223911,-33.24722707530347,2.364743652194563,1.0491327e+07
54.608885526421204,164.26159913126457,32.85910443702045,9.197233e+06
86.68844914352258,-65.19463713020826,32.89637970257458,1.2049207e+07
-125.04365515095066,-133.98232791689142,12.157642505500686,8.974793e+06
155.7080881746108,-20.381911196554512,46.397616217405485,2.7682244e+07
-79.2615392133134,76.16909130686633,-3.82414422759104,1.2810588e+07
97.64457303099846,-106.17594477429151,23.76282095108359,8.970023e+06
133.82939831833318,79.39678827636209,41.26671684468959,5.7899445e+06
-49.86842105862809,165.91048132607176,14.704773340863007,1.92248e+07
-34.490820204941286,164.04478351871256,36.88137934647656,1.2745031e+07
89.2357410124385,91.42689541195239,33.44526534171084,1.2559272e+07
-182.9492160953564,15.209875824868874,8.653698964932804,1.3841499e+07
5.625787705571156,140.67674858849426,13.436363759918907,1.1718605e+07
-8.549829421821954,-154.136819731868,36.65445496168202,8.381266e+06
-99.37785495010813,-70.80169716319625,32.20292654932822,1.477611e+07
-153.78614570421712,75.84294722447152,3.523406127181069,1.3634619e+07
-22.874648712766316,-107.20078804072254,32.9980155380992,1.1892192e+07
-111.22049010857901,-142.2484639497074,23.176338271119967,8.457883e+06
-43.69603832144543,153.33194043798864,42.061111286641555,9.210983e+06
-104.9321971607366,93.20859375023485,12.432265913216174,6.8213735e+06
-29.8631784757049,-163.1264067322927,6.238588652977422,1.456471e+07
142.18584797415673,-53.0291828849065,19.743306556216275,7.095128e+06
-25.739420925471624,94.91035888652425,-2.925885649130531,1.3945025e+07
-164.85824240420078,-34.35182889309684,15.191917086096485,1.7594406e+07
-21.3882897953022,108.11418438436215,38.597910750776414,6.765264e+06
-83.88530227963038,-90.45952367005646,39.00594708866976,1.2984674e+07
-9.149019618747104,169.5931501408395,38.87292370873252,1.4139512e+07
102.98597916647229,39.334967749125184,46.69772156560748,8.0550955e+06
36.75958148712709,-102.03327688226192,47.166685507176375,1.6276378e+07
-32.81305677381624,-138.94939162570984,20.473614914064154,6.904692e+06
81.17350475851987,72.25053534879481,45.65611140074197,1.2235877e+07
-178.0900744372131,43.136680057948865,43.232116467112284,2.5660652e+07
51.41525585979818,161.90729671269315,15.44418473558234,7.4672065e+06
102.25508201436493,-124.68707738306053,0.9292084483264148,5.601251e+06
162.95990358702994,74.06363778253893,3.884619641315874,1.4833918e+07
-25.55018206256267,174.67804174875766,26.081106185520387,1.4550406e+07
143.91517608406082,-72.0471260636439,33.394112869978784,4.2788815e+06
66.56793467301196,-133.2757759360607,16.806541210011783,3.025853e+06
158.07145073693027,-36.614135019360276,26.147948671694422,8.080473e+06
178.3889858095809,-7.428684754064562,27.92529493010692,8.0719425e+06
144.289989420111,-77.36950039995163,25.943566779799028,8.1897725e+06
-63.35155153035501,69.34053140540857,47.09298891110767,1.87517e+07
94.6301294896802,-74.06721614465961,-0.18964266134331273,8.393076e+06
-119.58781910582674,20.935639029790963,43.25034633706873,9.56964e+06
48.28842989278564,-177.00790629189086,2.8074698023144165,1.0305576e+07
-46.5304202976551,133.86943204814457,10.807136346223183,1.3140599e+07
64.69853801148645,100.56972537304614,44.957626422078434,1.1133762e+07
-23.04094775134851,-103.41952974515083,40.03634157124729,1.07517e+07
-51.702718760064045,-93.13342079706382,26.419855315151583,1.0731385e+07
-57.283570295081006,-126.90454178290271,9.06031342728933,1.1269761e+07
-66.65489809329807,67.43878415266073,0.4067603127465843,7.8269055e+06
-113.37426471613652,86.81074282835976,41.53805788938877,8.197678e+06
45.84497582577961,143.99413647523636,46.669698513146585,1.5944068e+07
-89.90518132249167,128.78031024942806,-1.3430348128062062,1.235881e+07
-107.17268432015783,84.10039507295159,-1.1959407172183951,1.3019519e+07
120.04467184528636,-134.930431274268,3.561885880446868,6.1508995e+06
-110.57850022513267,49.40928579884502,-0.27930457341649007,9.531612e+06
72.13265582233078,73.65901710263887,28.36339460449572,1.0309207e+07
148.40995220777955,-12.940202010163176,34.80537592669071,7.2285885e+06
157.36118874369834,-2.238648628847926,13.632797706492196,5.3039365e+06
-142.84658778954835,-78.19128401260676,14.721757276206699,9.619199e+06
146.38123579924013,-77.21892197155063,37.643500778089226,1.0380151e+07
17.665511063105868,122.62702753113956,17.436869756064617,7.3200225e+06
-118.12714483148201,26.740806440271484,12.016673505673069,9.317102e+06
157.87706302368292,-69.18234381111102,21.64156639802993,7.462679e+06
126.06348181963106,-90.65890891285142,25.793374448524947,9.403933e+06
-142.89531858613813,-99.67533363596135,-2.5554115317267643,2.4143602e+07
-75.05923850158015,-127.1236444921191,43.023576893651125,7.3862345e+06
89.87440723474856,154.94984996940457,13.495467122165088,8.853981e+06
-12.093216121963707,-144.78479690715903,36.13317229717047,9.480753e+06
15.220707963071957,-124.2370654508269,11.50148950580541,1.1076051e+07
30.310197353878582,96.35393670636506,28.680663621406374,7.9835235e+06
-123.63572499020611,13.705153543514115,10.982484410123277,1.0698595e+07
151.74379347139273,-75.33665791213728,36.951259219505104,1.0944257e+07
122.5202712894606,43.261084855158174,46.61492768924155,6.893949e+06
8.364976377604762,167.7547681564593,1.1704849090048641,1.2200993e+07
-33.95103723257108,-154.9817061100557,16.975002909254698,1.0192203e+07
-156.35934743285588,103.6298763104354,-1.7973489524518484,3.6170336e+07
142.43310315439084,-17.743322305552,40.89804856578135,4.698769e+06
23.069809071115742,-129.39975404126199,35.29092782635927,1.1736273e+07
-175.55991675294644,-15.883529475536562,34.72291952243493,9.442176e+06
-105.53673168309281,-100.97002024976405,16.82172162142397,6.076712e+06
19.142355267879566,-125.05234804134533,-4.56259028011099,1.9007362e+07
114.7716794816173,-10.120143816137357,28.855702252042917,1.3938253e+07
68.72482153649719,-88.17026467392814,-4.349350039292962,1.6520121e+07
86.1816403229277,-33.0254094125705,45.29717409103429,1.2479404e+07
-167.66989120859526,-7.543668056947126,2.0388852614599378,8.620774e+06
-77.19801200485632,-69.07854660491543,2.135604962653182,4.666398e+06
150.75972837726977,-49.69025832799582,46.141738242833966,2.987079e+07
-72.8630247750548,-85.46268070453138,15.020322686948541,1.0375399e+07
30.36893329234323,-147.66378564390138,24.359286513263644,8.473663e+06
-125.50250873257052,-32.70030446756195,18.616678594361904,1.0012841e+07
-9.698359005137604,156.64054100371231,36.099863060939235,1.1571671e+07
-49.77717500432303,-114.71968435032188,4.115127652205883,5.802661e+06
95.73851723640996,127.8512990037601,20.208587811972208,7.39457e+06
-6.212171223934206,-176.0747509988413,23.12581980668809,6.8245125e+06
-70.29782549694664,165.97744884015293,37.70714321905829,1.1022387e+07
-97.03666228131374,128.85574985199486,28.614868421162104,1.0112651e+07
-55.64282511337334,-84.01354843121926,15.82465890494793,1.1440979e+07
-166.73093366378106,-3.514191003231474,-4.64642833637174,2.3998954e+07
92.2812829597388,-149.33327437758325,28.99380386352061,1.2000176e+07
-107.61929456717642,36.354534085470874,19.57751614197029,5.364908e+06
-109.4950820305113,-89.27877012267955,14.414773295001986,6.3650685e+06
4.20020631844622,-165.84178614529512,19.748078037480497,5.0621315e+06
118.8195265882117,35.13294687806271,43.57820435069953,5.5354205e+06
-34.870329705273576,-103.62025879377836,8.44660392702234,1.0755275e+07
105.89664001111538,2.9366549658097654,19.636043327341245,4.9081105e+06
-160.24063200767156,71.95552031935347,-2.3381113234410242,3.3593876e+07
-100.22446630828776,-113.00762885921753,33.51573427494532,1.277462e+07
124.10497341001076,-121.67505617695497,5.2181240968897065,4.5483225e+06
35.63135054716048,116.32084248324405,39.107135766279576,6.8734795e+06
-37.687196376224364,97.84092991178312,6.153692571524082,9.481273e+06
-33.97083633437771,-176.62857755226665,8.551943519404123,1.7894792e+07
-75.00741194264164,-96.81657169965017,21.68699894679773,9.340479e+06
-123.05660494358155,-67.53515479662747,33.34953645859707,1.3085524e+07
1.7367798725735781,-111.76552634278298,33.83274333621654,1.1972129e+07
3.616376845094976,-155.73904454251357,25.791573229450904,8.661959e+06
-61.186326150047364,90.15060983485881,26.41752364962639,1.1090193e+07
-155.29060080260453,-82.1506386467838,-0.2638023928674055,1.7612856e+07
120.173367543197,129.83447140554495,25.99366593016787,1.1964453e+07
13.233658670451776,117.78968006542458,43.059621386114245,9.767365e+06
78.25394291051458,-143.24734758431447,35.375077928937664,8.23635e+06
145.7356888319111,30.769422224756454,20.730511839950417,5.912683e+06
51.47170030829855,-161.9454115869798,36.10630524679894,8.848866e+06
123.49820725934791,-134.10806589936448,12.267788697466145,6.406142e+06
22.333791641233347,-104.89915325592287,-0.46283079211549416,1.0130718e+07
-143.54755508183604,99.12376962819769,7.112958542007231,9.921334e+06
153.43397707187142,-94.00985181462622,20.81010230125896,8.1338245e+06
113.97324273945264,82.76670396195067,35.530774939148905,1.2815306e+07
-39.411416272096744,-141.24002500738771,19.751150540419047,7.7140325e+06
23.242409881342326,150.12577850579635,37.64189878132502,8.400951e+06
160.89521006918,-56.581153156568575,45.016086167445074,3.4678344e+07
151.57407196754076,-100.76060050038764,42.15716079872708,3.1297228e+07
101.10013991351036,-112.38335397972352,8.10618568812252,5.8385955e+06
87.39442529532374,-126.41073341099936,42.416276677325556,1.0985461e+07
-19.515390676787945,-182.35585413996657,35.25825149979803,5.8573775e+06
141.0644215014416,23.917957429391834,21.410714874067722,6.918648e+06
-56.6504375365256,140.7833048936572,35.041190879477554,9.724486e+06
55.96585873360834,-124.93092222353228,42.976187760816366,1.0202581e+07
36.502182323475694,-170.604036974773,-3.5191879174056764,1.3493541e+07
16.43182363062857,-172.04500655234006,14.862957167757578,7.3046805e+06
77.2195965794387,115.506974880489,2.6474229104483675,4.8306985e+06
121.38324955052042,4.7371176273163655,16.60384460006618,2.873116e+06
-6.155700800214845,-184.78079725760256,22.261132876771743,6.8735495e+06
-40.93195165288162,-93.35729423021073,19.948004482157366,9.913863e+06
112.15516900496169,45.654160528688834,21.829092888236286,6.615646e+06
-120.52774237657835,107.89095567886073,39.43478851113523,1.1373731e+07
-183.79546849659212,-34.30911151035008,-2.795860156733746,1.5249886e+07
-47.058833770467146,-151.68783242532476,14.768881447435316,1.2616201e+07
-56.6909116804554,-79.80409722713668,-1.0368277538939115,7.802866e+06
-81.6215849804276,-157.59874726621766,46.60583769270916,2.1802696e+07
-136.06893129849595,20.388002179191687,15.660982099958435,1.1522787e+07
39.926958594302874,150.3713645338417,3.840626281762571,8.965815e+06
-34.10349924576286,160.57004816534163,3.055791934542999,1.1142509e+07
-57.071115432529986,126.581336513103,28.581458255010816,9.744289e+06
164.5019620332808,80.96623223610572,35.150469554662855,1.0071368e+07
110.25707697224082,36.942977663629904,46.639324744625455,6.1735115e+06
-164.53558203560624,25.700156899955005,22.876294800536044,1.5074231e+07
32.37372438395076,104.39307004779266,23.882206680444394,6.6136325e+06
-119.45676246116746,-73.51216643282142,21.10496729262855,8.003213e+06
-140.21466581915695,96.40237105337036,21.070555994931077,1.4550529e+07
4.879363820330525,-145.86065574807003,40.06368422857732,8.84173e+06
31.819633559388194,-106.28113356251609,23.241955164417334,3.6856435e+06
-141.59053272552637,-85.5134512962306,0.9347893873107864,1.5555065e+07
122.58612656096386,-145.03143841656475,0.9279657129065682,8.3360575e+06
101.71615095050463,-89.76830447505604,16.1120596824736,4.971852e+06
-74.82623601638024,-107.2175092141661,20.696165233296078,8.659239e+06
-8.591733014300928,-180.0609838447893,31.326252510537827,9.153981e+06
-178.92599114349497,-3.040147705624207,23.447187652532516,1.9801508e+07
144.7686890917011,69.72761321648034,19.58142725343403,3.7984298e+06
162.75448449758755,-23.220984637281873,-4.399838188035734,1.3235513e+07
-48.92329237876743,-77.05887547057335,41.514066209635004,1.1688754e+07
95.84460003945952,93.48892387140307,23.890124304666916,7.920096e+06
1.9940206134060077,146.21494168218612,24.69983749650628,8.594905e+06
-124.60264439457944,124.7329445067461,10.818393003925978,1.3787875e+07
-97.951474482154,102.44133786934356,44.175510281198314,7.1591365e+06
173.32205937022843,-75.85706917413533,-1.8812100151371691,1.2412475e+07
-121.0115713352804,93.40248723288488,4.710462458795444,5.07672e+06
-32.734013476826135,96.26374871805854,37.41009642506262,7.540208e+06
-7.2670526982491035,-153.0475969866011,2.8699818006473343,9.04954e+06
135.67012100859887,114.97456561548496,5.228444094844408,1.4005721e+07
-110.66265052193138,-112.21106643605903,5.475992548487679,1.0151372e+07
33.37972362519599,138.72689362425456,30.073329277234844,8.048667e+06
-80.81552288874012,138.2966564610249,7.67072241145506,1.2362819e+07
-64.40448264811471,136.41066394928322,-4.72273513633572,1.6644732e+07
-121.94555650847359,-132.35255338033997,22.99025259643801,8.072546e+06
-144.29752579930212,82.20513809134025,31.882491522603022,1.4166364e+07
-5.926016395960943,172.3415483838004,-4.255161303186909,2.0144658e+07
154.36620753000977,100.01245128685095,2.878861582256153,1.5143484e+07
-10.814251680654252,106.8315163793115,2.001460092161562,1.2172548e+07
-123.17362954909736,-78.50197227774247,28.400132773879516,1.0694752e+07
-121.7484467743938,-3.120722911063524,27.18220300934631,7.51266e+06
35.19610360467257,118.00967548854062,22.05122902755239,5.871599e+06
-136.60526933184394,31.38033346529801,5.208044607085248,8.0987275e+06
161.3476955897197,38.62887825219957,7.434916314528275,1.3722785e+07
148.6033360999781,-39.45166546816213,23.186931097915004,8.656293e+06
-39.0602374042993,-150.94244186143914,45.05731018671689,1.4296614e+07
-8.590870570637094,110.04905915566752,36.39107326024464,7.697304e+06
-76.61444913205445,-164.6925187833274,-0.116231853173121,1.9238268e+07
-49.09758458589647,-103.61287840330671,26.20167283587197,9.829273e+06
-154.42330007901472,9.913664815608314,3.049193734272251,9.100285e+06
22.814776911807854,-113.54710402722512,22.58102486625286,3.4908128e+06
-99.75713916779085,-112.39880205886074,32.10582718436582,1.2530767e+07
-82.75645469828099,-60.41715319204878,16.0020639858714,1.0566931e+07
-103.78135487383896,135.62303934654847,23.962479262544033,1.1387577e+07
-40.71535893471409,-140.34235653917818,36.63784912158476,8.2712925e+06
-47.88421959102243,174.98035811003012,25.6733170096761,1.4384287e+07
60.17942236767573,-135.90863613186912,5.702132116157671,9.615413e+06
22.104371585344524,-170.26037015707817,33.04882248206788,1.0589438e+07
-106.20934381007653,-136.41892814086506,40.59803437826869,1.1838632e+07
-95.9319215707743,-39.33536873636632,-4.936925471175945,7.3680305e+06
-149.08017692932236,84.70623086279267,10.508032873311386,1.092179e+07
37.46507755867742,150.23754267959708,18.333165984994796,7.6872475e+06
13.585667434915791,-163.72434100270476,37.5530295292167,7.9193275e+06
-18.91948020404115,-98.45148299608488,3.561014205084973,6.7440665e+06
-58.17273024060472,-123.01869952937317,-2.403857520115883,1.2732085e+07
75.89720518792535,144.25387420820186,43.06989554850312,7.267398e+06
75.13211245834606,155.7128383856765,29.284435582002814,8.486569e+06
108.25864943789895,39.88419940920562,16.706213956233437,3.1152312e+06
113.55396391470407,-41.6357019310789,-4.282189743059746,1.2150076e+07
-143.42123980466033,-112.34984214657229,24.908311593559997,1.0416277e+07
42.70697680884433,-178.93221733416948,10.815290159220908,7.803782e+06
122.8226560604154,-102.24926828801415,8.144215045571968,3.8647365e+06
-100.35640267688892,-101.28061354787725,17.438040418795737,6.7566505e+06
120.84600657402342,52.44847369768638,37.065726943274434,1.3223483e+07
-26.61406199697231,-149.0147862481293,22.4793658237239,5.802539e+06
-136.95473261514735,-66.8396832057183,11.485494213865397,9.574383e+06
77.16420981911017,-131.62425556650695,43.16104724182325,1.2093632e+07
-119.13986736479463,26.709815573135558,2.9801822533055136,7.655164e+06
-23.261646031562037,-116.85504459426683,-1.8326717555175263,9.906441e+06
-135.24893882211342,-84.52615723529445,-2.130097893569579,1.7423958e+07
74.37532679768674,136.03961532347404,-2.22445677526993,2.094575e+07
44.22779054385987,-92.16245183259977,32.671865209698176,1.1222304e+07
75.14314829969135,-56.51775533441477,-2.941659171232674,1.2807345e+07
-106.82007746230089,-80.49506944114766,8.897731128657568,6.390724e+06
52.77842916968285,82.4156798208233,0.7320351692163809,7.454666e+06
35.32080887376753,-114.31856648455087,22.840838498031903,4.0283058e+06
-131.79283947409442,13.630581116781032,24.642917271499925,4.7061255e+06
165.770698101137,37.1382379083534,-3.930499894783699,1.1289371e+07
-136.6714567393441,-104.35260657298943,35.665865171911214,1.2759651e+07
-78.25702181695378,114.19951030254174,27.766223039855294,9.654092e+06
170.3021902806368,22.430029298093416,19.671610963454476,6.8374735e+06
129.730254949555,-118.68974459495875,44.416326585476746,3.0904738e+07
-167.27426502704083,26.130902918137394,42.54785900249448,1.765389e+07
-101.65611514922999,123.79937024783578,2.187572738401569,8.0742565e+06
-16.494866492412,111.08613630498371,16.090271228338235,7.694852e+06
-15.629391590126746,-149.88964642643413,39.80172026649744,7.186586e+06
152.79490482386626,43.52572375203829,12.407720175495477,7.83178e+06
40.82630557310972,101.7194432763979,13.282104401004727,6.1874525e+06
79.04904574449438,133.28315525099583,21.578942095077547,6.3528715e+06
-140.53721655355065,81.555973097952,25.192632937546968,1.1887806e+07
15.688375667597882,135.0079535027154,40.99660441674985,6.90106e+06
106.81431910930424,48.75029422824082,11.152774674030653,8.2762345e+06
22.592532334787563,167.0127837399565,1.0364529316102606,1.3124462e+07
128.28659698846616,-92.00138130501232,-4.252603192826341,9.264412e+06
-4.939750654076249,-154.57499706070857,38.71877738674932,7.5952765e+06
126.62058421951616,-9.457949221925475,20.41729611582239,6.480163e+06
91.02177291090993,155.4366495683442,30.156227172173587,9.684067e+06
92.08226195500566,-67.16701344974436,17.667270393719836,5.375212e+06
41.37200635407231,-142.5644535146016,13.836298054077465,6.211016e+06
87.65717530920665,96.73586546229603,42.21081244500982,8.0145525e+06
-113.02975282153716,-75.68393356369789,22.985828199706354,8.628741e+06
-74.38413458115005,-99.82583296965508,43.887609165854556,8.2305815e+06
-25.697379317519218,-126.6506866212373,39.123349862965334,9.008966e+06
14.176391547009842,-133.16764118035002,5.720685261561895,1.1246665e+07
83.5895762068144,-45.18882581092262,19.961297560206688,5.4861635e+06
135.9235376219732,-122.18128596377306,32.69607681192365,9.628942e+06
-122.09393719654278,98.60907108101105,44.123058206909434,1.1448579e+07
-85.21859937077014,156.51048178465226,44.611889568767324,9.509346e+06
30.501328102103685,-104.95731924136157,37.5889010382661,1.1865568e+07
66.95852885941366,-163.7324660102651,-2.351747918642137,1.2970464e+07
-119.82282064565601,-120.11708674209807,34.867610402337014,1.3373e+07
-158.07766282851435,7.471539328445317,27.232434307701645,7.844242e+06
-85.79485416408419,99.4061401612376,18.639465539711015,5.2583915e+06
-121.40953518365518,-137.96567939058866,-1.8172038423140995,3.0189808e+07
39.82549369597788,-146.44306105785574,12.35787715112302,7.736191e+06
115.37213573363537,-132.28754451744783,43.7423280058376,2.553062e+07
91.4920423824525,133.3918146174354,29.46978118339701,9.552013e+06
21.44328836102264,164.75599272351803,5.615240426833649,1.0888372e+07
-63.91823860274144,-102.35827358257644,40.345411159186675,1.0291378e+07
-80.48729498118483,109.85363512971458,41.975342458213426,3.4472348e+06
96.18951903775428,60.42327315440378,46.88746456407039,9.671132e+06
4.131088161290876,111.2603581882297,30.350240432393775,9.031422e+06
14.076863392099312,-140.27760316838788,37.47342462443545,1.0189746e+07
20.94089504205789,-163.82547048002772,40.22879107536926,8.851605e+06
-102.45115537179852,146.2927512758268,42.09435498379782,7.508577e+06
60.94020114013102,-133.59129459753257,1.7925980991669903,9.07161e+06
-90.44077210634653,-82.00382201860626,7.627121583755918,6.3368205e+06
82.7976002275816,139.36115620244954,33.79437037930777,7.5467135e+06
76.77134954309412,144.92602513440806,21.548740634745634,6.66141e+06
-22.170621001970858,97.52937974852915,24.33102462645576,9.67179e+06
-57.442952163382074,-118.65673404590318,37.648671430360736,1.0181756e+07
120.57552917029943,4.606548924270726,44.542951788326505,3.735649e+06
-148.68548715118735,92.71105045389379,32.441166531227374,1.7603922e+07
-121.43285174547222,81.43613013523299,44.53548914929816,1.097271e+07
34.68052733024081,-180.337436460989,-2.060891725822708,1.0183996e+07
-156.35956071001567,-73.49642422800002,19.06013304606762,1.3024535e+07
1.7692433335406577,144.37336288686998,32.81274764440903,1.0021559e+07
-113.97948248850795,-38.605884533084634,33.87029738957889,1.4397564e+07
113.76462670042979,69.69898456949352,34.03029839559827,1.4501981e+07
153.66244881125652,-12.143357436820907,37.17349792823912,4.649372e+06
-175.70816612365707,-25.187935247062253,25.151557954811143,1.6748753e+07
107.10814318130912,106.75362866838975,3.5112975492508736,5.9073935e+06
87.22173502475192,-125.19130319924092,6.7295980050176185,7.3193535e+06
132.56623795622795,-49.9743041171414,-0.07902531621155422,9.100426e+06
-90.83362491419749,94.52268245197524,21.592754857042543,5.9182185e+06
-104.36455832102762,-102.26163394561189,40.77749571168242,1.0567108e+07
-161.12902388680723,-47.65323415387738,8.944038667806788,1.2788319e+07
-162.94917453536786,-25.719302261523378,35.77775114138005,5.930033e+06
159.5311131624453,10.943580747375847,-1.3426833796242574,1.3259652e+07
-139.1971910876382,-39.95792707365209,-2.1610390369145764,7.4598795e+06
44.25550672929023,-107.63831519483652,26.523928327406004,7.9738705e+06
106.63207085027896,-86.95006385567456,30.815186462987217,9.658995e+06
-37.490842309598975,130.3271063562368,17.35866201247284,9.373874e+06
-42.80928058098863,175.17991591473583,5.6558776726334985,1.6488884e+07
107.28499618211953,-146.48318272235113,38.93532160501513,1.4243448e+07
-86.20049011151703,-72.76466604995404,0.5622313548748084,6.4914245e+06
-58.49463748109081,97.0003191715216,39.741116358158024,5.8520645e+06
-78.60677095023942,-151.95929475150703,-3.482066122673992,2.2268552e+07
-126.5144018083479,4.0529406303082,1.4333964901079626,7.8881825e+06
132.58255621509466,10.143474993387485,10.410523336462596,8.906731e+06
-152.5844326673216,57.07399130381418,31.87323708959294,1.1677673e+07
122.57767945673692,56.04757955898714,13.7195811271478,5.856366e+06
-7.827942145508246,175.6960500204642,14.33597717337014,1.9300334e+07
162.41905886850805,85.18450659965396,23.317483573444715,9.259384e+06
-139.47028279714266,-67.81269830489717,8.315445959925876,9.329856e+06
116.93445969735944,-108.19472181539047,45.081310301132326,2.3378344e+07
98.29359853757802,138.51732146810264,36.321505259736405,5.990437e+06
-56.539573881945984,-136.40156320204593,8.074618899526884,1.1933638e+07
-73.20272720272013,96.19608115060225,4.584377732747621,5.4365705e+06
176.73097839999787,-14.702672194776229,29.37043208180617,6.8308465e+06
111.31421940325863,52.680601089157676,2.044859283897345,7.648721e+06
106.93969728832042,-139.41861797754348,-1.2850999732015986,8.079999e+06
-83.44856530362131,-60.92420892005009,37.32137309936305,1.576719e+07
87.62969358659763,156.7780523596643,-3.6013907531353806,3.2220692e+07
138.59432750314926,-53.54074554556095,46.9193904707603,2.582562e+07
-100.34055302417366,14.72409623110417,12.455325916205386,8.948577e+06
17.723974471662217,154.19270562127963,43.04952498562636,1.1161822e+07
-107.44803663530722,12.643616695993956,11.615770832493787,9.586794e+06
-110.71350229529094,25.555682901799823,3.5743692817963786,7.595777e+06
67.31716436774872,-98.77330490009055,34.00402351601693,1.0920998e+07
35.70235845433078,-169.04700062580096,-3.951305739689092,1.4628261e+07
5.749982517351782,-156.8288127943439,10.633451916003409,1.2304415e+07
157.2952167211896,-88.16054362503377,7.072670041644788,5.939075e+06
-129.79375210055787,23.79257004852525,28.17727923341735,4.286369e+06
25.13337632677559,-97.72622245625983,40.75261910017718,1.1988476e+07
-87.67918246427833,-117.5634003839499,20.1947657304778,7.401174e+06
59.291392243116604,-144.67999035656652,10.331340665419704,7.720013e+06
116.27383286611945,6.398037589306937,6.759543412587405,1.1450872e+07
-137.9741525541668,-77.22767486854933,34.223980788528806,1.1386421e+07
-123.70210129514034,27.207123978222256,38.637179501289715,1.0475386e+07
138.7181322642037,-115.88895714156865,6.372929914317191,4.999693e+06
12.851943033988306,-105.35013792907385,29.83336450861146,1.000842e+07
-104.7005299032429,24.242921449654716,25.503568059721484,8.440447e+06
106.91270780931114,-56.24834551759835,16.406760476113455,5.2035175e+06
69.97264791441614,76.32914403335394,36.27350143872169,1.3458252e+07
103.10578270573679,80.92846690960886,10.896874733447198,7.2305145e+06
69.39084935886433,118.43466851469067,-0.4082984650395432,1.2208235e+07
83.82032168164255,-66.14637553764106,-2.7989320894323195,1.1988268e+07
99.5452149384916,113.71412341564042,23.237388845293136,8.0028005e+06
-136.8999412636515,55.18159318431768,17.24783318616908,1.0167436e+07
150.18609998603904,65.06471096345956,28.184557167563746,1.2682954e+07
145.16760803592712,43.97678389988312,30.7207847385572,1.350554e+07
51.95339502461187,-164.25800390433082,9.654218626923887,8.2681345e+06
-136.049248409104,-28.19507280905404,40.04681132255773,1.0827095e+07
8.102092862262026,151.08800040472323,37.816527015242364,9.452438e+06
-86.18035887309587,-37.146397432195016,45.57060610670722,1.1979235e+07
-108.4480087486714,-78.15169174073095,35.692887441248025,1.4603084e+07
-140.17688027762767,-12.328279411432504,0.4685779181890742,7.3857715e+06
70.8699815406107,87.25692280485953,8.050219201723818,5.2579035e+06
72.73049609710517,131.83449140589278,-2.1754443650201662,1.976964e+07
-27.362598449827544,-175.10936000673772,7.011139449980944,1.6753504e+07
-128.27394331448806,-14.333536012137756,-2.989675538452782,8.2604515e+06
139.30893810932008,105.84543926443443,22.9983377644051,9.871337e+06
-3.4550163768235786,-127.29688012667211,19.830370309894917,5.290686e+06
-35.74265670802035,-162.5700578556437,30.312415479384583,8.506981e+06
184.93241153857605,1.8638863059392181,40.34021152532754,2.431549e+07
-75.5392265572191,160.9626049008436,15.910596193893433,1.8012068e+07
-139.82810376080255,-15.284717826388148,22.203758921509568,9.302238e+06
149.4462685370778,-104.50417099621534,34.516932023543944,1.1924107e+07
116.76171590243911,89.7199646923986,12.370682440658538,7.3971685e+06
-118.86445893101487,-38.0678319996326,19.409310823398364,9.362558e+06
143.26384787745627,108.64637047932234,-0.9556052601171587,1.5457045e+07
169.1726368320651,-56.809332704630634,26.309041604524477,4.8634635e+06
-105.68133921000853,-81.43616060608446,37.23104507766043,1.4297807e+07
65.07326226869833,-162.65469630175855,43.97747717933815,1.9478748e+07
-140.0651660022927,-33.45634712628694,28.6503564529305,7.24006e+06
21.634144399805905,-110.6362334531349,5.427928093149336,1.0651107e+07
167.66436472768578,10.605872468670384,32.03890728855314,8.722487e+06
-42.98195828525908,-126.07264687539094,3.991873176021031,7.0336525e+06
-18.137061255199995,-176.0346963071266,22.01609239403448,6.3275825e+06
-87.0338587914273,57.7221490639086,27.37047130792595,1.120168e+07
150.1021299829523,38.22706536228702,39.323630548752085,5.901181e+06
114.12407421313817,-126.34042933591245,13.578819968528801,5.156397e+06
153.02948665561422,78.8210358189371,20.143203224112803,5.09387e+06
172.25636351581863,-21.596770039324127,-1.8044043459745098,1.4982409e+07
-37.280197376612676,99.31728190961815,35.67019816074521,9.171805e+06
-50.80495770135204,-120.12274389180403,42.63195129473471,7.2824285e+06
75.51014768481872,-107.1123797883565,30.422345999766904,1.0651534e+07
-166.8798500366113,-13.884753714895083,21.69751885029926,1.6713979e+07
86.63428297809037,-160.98646002560605,34.21849795782173,1.023091e+07
-134.64394228346578,90.16606468789547,33.86371543200604,1.3632534e+07
-127.59437505947595,70.51779391162171,19.820828844424252,7.958844e+06
-17.829573561425207,100.65918425393903,4.240727104965711,1.1075787e+07
85.58155474604507,74.34813376906607,14.909096401554216,4.9156735e+06
5.8637377350409565,150.5401267900504,-1.175174875640214,1.5472697e+07
-101.2927893530135,10.304830175475928,9.716670150625818,9.529613e+06
-91.00162856073707,-143.64868508410296,5.243161445749211,1.4314264e+07
170.36027111704323,4.844773536925118,33.634717543076846,7.385382e+06
109.16081714981902,-151.23266198296,46.787739408129035,3.900257e+07
128.45047659526932,-16.015308793836567,23.973869893073914,1.0265363e+07
91.92841120555966,-97.92997640741237,43.867494080505416,9.92292e+06
97.81037005599649,100.44886136229336,13.946282006412304,5.6865815e+06
21.751330641190805,116.20079042159091,35.64529506960183,7.42708e+06
-142.87892201169007,-4.442022832587952,5.300130674720464,9.199148e+06
-113.81579183795156,-94.59380792641237,2.6001004162898873,1.0837328e+07
-41.991263034835015,-152.0429975496056,40.45376862950498,5.63539e+06
26.91373720459015,-135.64598516194008,7.92666098424337,1.1467993e+07
-7.025316915594402,-157.45305175800462,11.174355700011237,1.3143417e+07
-44.73545524170359,111.59967866111026,33.476073356154096,1.0707836e+07
142.9645899758769,105.26783786544536,19.787705547400716,8.40079e+06
87.35745899831772,-69.76026707708934,39.761097260030446,9.415078e+06
-12.84079606865251,109.6503581321349,43.71247073366748,1.1289695e+07
-44.536820294642354,-82.87528456786161,-4.012793335788641,1.5496435e+07
-4.1796134015716575,-127.41678876005444,0.8175133470407999,6.800357e+06
86.64832919611518,-144.93909172650663,2.252572082926327,8.2070395e+06
-59.530451881171366,125.98821791517499,16.980045087870074,8.982014e+06
-159.5605047757727,-58.337687485107544,34.31915299593959,7.387592e+06
125.51660511113369,132.9472735691325,-2.9775237691071106,2.5951354e+07
-18.23534721855563,133.76342395762435,1.4509678442417098,1.1811001e+07
86.47573588017428,-162.1757067137158,0.14201113198914317,1.0706553e+07
-134.64251019495566,102.24526833781289,8.83421999085199,9.569024e+06
-150.31929504524555,62.620014137069404,-4.601291114435177,3.5724652e+07
-21.154237438299504,187.21468581204334,-1.7348801210983624,9.665059e+06
124.79075230852266,-100.75793334660989,33.935951343333585,5.21034e+06
-51.091078395893106,-153.34760307623094,27.743768167375674,7.7714345e+06
-149.7566059526751,46.50815717261017,41.478010230883854,1.4123338e+07
145.41683916881198,-33.24108622396048,18.82582348678301,5.6617875e+06
-22.57294304063268,105.34835674112016,5.4706038779035095,1.0842864e+07
-92.41513841107438,76.57165001287586,38.20145016504236,8.758559e+06
-2.066600019701326,-194.6240192615862,-2.211074093223557,4.3915695e+06
90.91452825558758,150.54447402904685,7.465587558947686,7.6973925e+06
-151.71404353456327,78.4312614774347,21.058708923434878,1.5324697e+07
-85.48063482041135,-129.40030715778147,20.01947427795023,7.3587585e+06
-88.14543928222247,-97.46037904345557,10.78670841560227,7.599485e+06
39.98623174282301,-164.67283561158888,4.909081769370901,1.0650223e+07
-116.91512082636403,-94.87550315230568,3.4374996171637213,1.0531108e+07
-120.64844372317349,-65.86977686139957,0.9438288982928515,8.676611e+06
81.2310795747045,91.74477188590748,36.347554911880536,1.1933097e+07
66.19585600002165,145.60739848206038,29.34696345316399,7.8311595e+06
-0.26756823492996773,163.57138939126378,14.167969532002942,1.5858874e+07
-73.2330916393849,125.69954059712688,5.2578467321934,8.384191e+06
89.26071998148382,98.96490950975647,46.0035277516718,9.717556e+06
-93.2545658985343,45.52655812204307,30.080703292296878,1.2020998e+07
42.39793808120166,175.01915358761835,25.65329114784258,1.021997e+07
-154.44793648093787,-53.215042933940516,25.572263900240426,1.0381446e+07
-58.12946181617943,-116.61687777358955,26.331774553228325,9.192754e+06
-101.37559625525365,-94.69343251011733,-2.1002825846767084,1.5141279e+07
24.4114415423891,182.4043031860258,9.007696308915474,1.3433466e+07
-77.44369103663358,164.45104935767966,44.18503238151158,1.0854641e+07
1.4373916657614245,-119.45580821697179,30.40461393095085,1.0907171e+07
-99.44651435194149,62.75592020885126,40.24582006297924,7.8880245e+06
-69.430273802318,-130.70665208075414,0.34285562154990507,1.005534e+07
3.7901888973703426,198.36327988087254,-2.9993794835109067,1.9290776e+07
-103.87443616557603,19.546654863039237,20.637146217959046,7.0836035e+06
99.58838860789973,-19.906567434206806,5.304275163192191,1.1091851e+07
107.17318875212436,117.81161056713955,45.794634512845505,1.3023807e+07
61.54934888951681,123.37182911428346,19.83647814110951,4.95136e+06
71.07189620991801,75.44609327806438,8.912522721813021,6.343267e+06
100.9368870709472,-126.24401816456165,-0.39476208249396677,6.3557085e+06
-44.45444268907838,96.38502797168087,-1.6775078634346101,1.1294163e+07
21.12489388948444,-115.01636325972306,6.334127219558327,1.1147573e+07
51.996934784322015,-118.84377994085229,36.97619731561374,1.027576e+07
-35.36869890412132,142.54046828004073,4.850535146039629,1.2244553e+07
-135.0149019306874,85.30086599915444,9.788280493607424,8.2881595e+06
2.1569441535897624,-115.61301156543276,37.317751437234,1.1595857e+07
-23.357503917108517,125.4221011333259,30.059027939437165,1.0160742e+07
-94.4071330780166,-41.313592909262326,11.109841203826562,1.0010192e+07
-127.11163788957683,35.25605433012001,43.50430227126029,9.718154e+06
84.3774201252129,85.43794872073948,12.376039445382418,5.701353e+06
91.5846011633821,-142.91530641117288,30.353924842763334,1.0971479e+07
113.64792890003406,-109.40306542092215,15.766930626316604,5.317463e+06
-119.69752082971965,-138.9390707362199,-4.793931139459221,3.504252e+07
109.19276845318892,94.73734384237719,29.057878190318597,1.2178986e+07
157.74540544765546,3.4252783914324993,3.5606359988777774,1.4286967e+07
-121.17281184414463,-77.57948958176675,32.41901696022469,1.2883024e+07
-31.547146033637574,-102.71178269083556,10.702963700294273,1.1925529e+07
121.55606302006207,-57.55299866316571,21.023388321808415,8.10683e+06
-21.48891532250326,-160.29032255537206,18.529565842739537,7.770125e+06
88.64672932507176,129.85460482181855,15.9375299186716,6.2635435e+06
78.80959992670859,138.9356239962175,35.803107167882814,5.9739575e+06
128.54220823888897,99.703369814511,-0.3128853767875164,1.0144775e+07
-169.11517853964907,-67.45400540385455,11.730254199316068,1.5721396e+07
-108.06894208142354,84.09872403220021,30.678436187348318,1.039303e+07
51.72978441038487,117.52413837066608,45.10459086557672,1.0860429e+07
25.123646974925006,102.89161494220531,41.108059197770366,9.470347e+06
26.96205904917025,-175.1451676602986,-3.8711265081165545,1.3031481e+07
-20.53684047202404,-134.90022469086267,-3.8462902089626727,1.4715738e+07
-3.7848198025302224,-143.02956814584633,33.47582928479168,1.1031558e+07
13.435451428597958,157.73522353815605,3.256549925882857,1.155182e+07
157.3646311556817,-53.42862956053489,32.298920097744194,3.9258202e+06
-118.95789176375513,-29.26019504012169,7.548481198865433,9.91582e+06
69.84176281814621,-106.14050285498195,21.01415840833921,4.713273e+06
86.84587201841157,-107.27965001409316,6.26892190518749,7.8082045e+06
-93.38958819239384,-103.47672753408972,2.6020050650488233,8.3547475e+06
-109.51585717993883,-0.6298925375809858,43.577981208332794,1.0699322e+07
-23.114793083935268,-113.77325405191895,19.751610369962087,7.745684e+06
121.0944834403269,7.888461682533119,-0.7325941367333876,9.713887e+06
84.02948603640391,-76.84175849343808,12.761698804014916,7.30724e+06
123.8799472253774,-16.968724168088556,38.40435226378759,9.063432e+06
-165.34652043738657,-24.946895358025444,24.7848922671885,1.3418052e+07
-12.338153790366135,105.31387040717914,14.343082858016746,7.862246e+06
-81.54295821905447,-96.40813906563666,6.131158452089439,5.63006e+06
-7.9595503348360515,162.9608046412515,16.13361363820975,1.5670091e+07
-121.25275279185468,61.348103409007756,44.168884851520616,9.892022e+06
38.04459096050917,109.96775951717166,34.54230760443448,8.08588e+06
93.29155315143691,2.785257752604906,6.9261849044255435,1.0959998e+07
146.1870524155392,-43.29200117272981,11.861003455908499,4.08641e+06
8.0020332785829,173.1453785881112,45.90931645014913,2.1073666e+07
-12.329789700140822,-114.02338665550067,33.249918729867595,1.1786529e+07
-58.80983812616657,151.3125439271845,25.413428556972008,9.096416e+06
-11.134542063870299,-140.59775151049394,38.66753895149431,8.640572e+06
83.10294230464257,-164.34295636751665,-3.557579181265073,1.5307083e+07
-121.10418516853447,0.5569255680733818,32.91603336361627,1.0996477e+07
83.73332235580551,-88.98660544677641,14.069946780391696,5.970295e+06
27.363495028561772,-166.925583213603,27.580945951111993,1.1725144e+07
84.80892989156717,-76.39108535143104,38.00943368040776,9.771219e+06
1.700845682093757,164.47193743081908,-3.5690790252128584,1.9833772e+07
-73.20366837298175,-167.60877781056826,19.37153590157706,1.0658209e+07
-164.58498287047564,-8.692193407917244,19.048682709074566,1.7552962e+07
-161.5143973696664,-38.385980088542084,-0.8947336759287399,8.046706e+06
-144.63996862850934,86.61134430933379,10.684368421995522,1.0539612e+07
120.79618822344851,45.26162730225701,23.301491740343284,8.766951e+06
161.15556284475355,-13.145945774998097,-2.4647741021138985,1.3171588e+07
136.02544215573153,22.24444410123502,16.10618316897488,2.178198e+06
-5.200865104513355,-123.19053382096716,16.449498768724386,8.627497e+06
25.783826391129338,-143.4150820788263,-0.6748741581996036,9.330356e+06
-125.66815431627676,-64.96499666989953,29.095785249828747,1.0724007e+07
-24.97959321115681,177.77121525540838,20.734751436976378,1.7778448e+07
13.600004776596021,159.06074523865954,21.870186266129643,1.0125884e+07
-73.87405013871917,67.48207441682428,43.66417155494833,8.808158e+06
-15.425316939209269,-103.88211760774438,34.14585104138297,1.2032164e+07
-104.80937115180033,147.75505559144955,37.482253149635255,1.060936e+07
116.34319261328096,60.20943662532368,-3.667801748684688,5.145537e+06
62.009711697740784,140.97997382613016,26.597174635388903,7.058905e+06
33.452409834766286,180.043094702352,17.115946607695165,1.2990949e+07
-114.83199387574024,-119.8494582737168,15.135561301000557,4.4501665e+06
95.39087609373098,-146.75397856402114,33.92796256155884,9.13472e+06
-100.31354235301961,18.433995874806982,33.337866619966356,1.3126937e+07
-99.82916840495832,99.0282775189404,-2.5490536638332935,1.6057044e+07
-93.97288332421505,68.04609076788836,34.75466852207212,1.1316298e+07
-159.29667364870068,-27.978894530301034,35.72824818324412,5.978304e+06
30.065936693129775,-131.33172250573853,30.999051767974983,1.190809e+07
136.55154122059764,-50.24145821867552,36.27375956702404,4.38911e+06
-32.73357799517339,117.60524008281739,30.716571935926822,1.0711617e+07
65.1369089853614,91.11616811220705,44.42429186876482,1.2067383e+07
38.477840143967825,128.05368625428787,0.08765796784247713,1.3774301e+07
177.28932357018044,-20.776475812829347,17.31341000859652,7.374108e+06
181.21800294259418,-32.80878957665263,13.284634876054497,9.055319e+06
-106.48239301122229,-135.76909966538744,42.53198809060443,1.2101376e+07
74.51490773343556,-162.79466812745386,25.2541466014869,1.3002445e+07
-93.51233446150418,53.96262348876712,27.670350221802106,1.0641797e+07
45.66244590080939,-152.8081086209225,32.01832293526712,1.1959916e+07
-85.7092497086903,134.9095645529162,-3.2854708958404726,1.7079222e+07
-129.67964745678051,-26.927910557989236,23.142180072983173,8.2174165e+06
-117.84159121579818,6.863934537686532,40.08324907322665,1.1637234e+07
-60.73845193040671,103.33929707263383,9.557058355035217,7.812511e+06
161.82622736489606,24.897499907530744,21.37023888627999,7.3329985e+06
-15.665518968798066,-130.27247547627917,11.34890750368568,1.2592392e+07
42.6938987185209,-88.24721179952606,-4.093678738656765,1.7654284e+07
-152.00435695331333,86.66764644123708,9.346227498654438,1.0645631e+07
-106.63449283155101,-72.39842196682989,6.987502894536945,6.566615e+06
136.0179233973128,14.20825511151014,37.50821445958395,9.387932e+06
109.11661597186026,25.51499000273699,35.98491307126145,1.596747e+07
-54.94718342001218,141.97330377654993,3.952875898124427,1.0070608e+07
154.9006907843186,-95.28738536995643,24.781386698095055,7.320572e+06
-69.0641111578457,-99.4819889119583,22.77340453177987,9.431766e+06
64.26617519549961,108.36943078883587,31.987454939324913,9.437444e+06
44.987306398055125,172.56565615800838,10.652990194763795,8.47228e+06
-9.016893742255178,121.22726236405106,-2.0876942296777417,1.5250685e+07
125.35620606006205,57.94247815129426,11.366814158359428,8.403187e+06
-78.34045132207659,-160.842579495241,0.6493740620816661,1.8337638e+07
135.66145480948728,34.48769778859173,16.27509460381298,2.0508768e+06
96.58401910398635,-128.62462292608367,15.356112265863022,4.631072e+06
-71.05618758576088,-93.68831464447625,25.35886921031577,1.0629466e+07
41.465122044108455,138.32474580399116,5.96177819226987,7.321933e+06
-106.07186165299258,114.22557011142618,27.177436201553945,1.0138755e+07
147.93608006633048,4.076223046830961,40.19507274130383,4.298469e+06
86.4694985915736,63.11844846179867,10.128228418179352,7.5595055e+06
126.87405151482614,-134.9488315145524,-3.406959339046632,9.36718e+06
-7.3011626364773585,144.43786370311568,20.312195761364364,9.511642e+06
117.37033303351103,-23.13871232119459,18.116113697113217,4.741802e+06
91.82508593279891,78.82103422963621,27.949960060141557,1.1356782e+07
42.691693486204,-112.83074016154212,-3.873087531967895,1.693914e+07
-149.07837459320476,3.5782610825795866,35.75540640370567,7.322669e+06
119.99829539044578,-62.39882543111451,35.954755166858206,6.7594975e+06
-139.95172642148765,10.754017161064894,44.94628948550499,1.0137167e+07
-127.64075938533637,-123.97716188510812,30.623057622549364,1.323563e+07
-85.83831481033761,109.58424433613017,33.678151838961675,1.0737734e+07
110.41645028983697,-0.7707624309468599,26.96408272022065,1.2835896e+07
98.3371476136499,86.93769494337198,34.46253079868432,1.3154473e+07
-67.21624008372896,80.41835458246635,29.847274200795923,1.2629595e+07
-31.90911711517819,-176.44854048692613,26.399451638325992,7.5271165e+06
-51.58350697375255,-153.04893569098016,29.428670583149096,8.404405e+06
-106.62114458059114,-30.779254108320856,-3.4133932909207014,5.2677415e+06
82.07957964988327,51.10528198329294,45.142146642759286,1.4121851e+07
32.55741981271268,147.1709391598054,25.010271709609597,7.248671e+06
-71.59154727178009,-78.8104744146049,0.8259762078299014,5.2246485e+06
-111.72742042626646,-84.6165843060275,28.367399524580545,1.1410683e+07
136.80209791787098,-60.46352942378559,44.05562893618332,1.7574496e+07
-34.79517461110612,-172.2725512857509,6.644308491608027,1.6691994e+07
-24.475714372970714,118.67785567429496,37.50211142428557,7.606455e+06
-100.00859338483735,-15.4876438691646,43.00788484240665,1.2054012e+07
-94.29055195998872,50.90993018909137,6.51964106947499,5.511716e+06
-106.1808419867157,105.45883559110712,6.796041623062186,5.490573e+06
139.534291855243,41.4676245177001,12.012912478808676,7.894913e+06
-89.19299131104617,70.88056840746822,30.138114392215222,1.1773277e+07
-2.1781004225189236,149.12915982627845,38.54154435596768,9.33046e+06
-24.01246693593916,-147.7567319948776,11.852410877017675,1.3407891e+07
-157.80819516622574,-58.628889212480736,41.39537002692747,6.722955e+06
158.12517206213107,64.7321213517634,30.34537795780682,1.267245e+07
-177.76293044683067,-2.8846478279628514,2.5456993081564647,9.815369e+06
-70.88546968150067,104.0193340334896,32.90617604415795,1.1365706e+07
-52.64054556054069,137.36667754992283,-3.7858734125327915,1.3168819e+07
114.8353166451529,106.8944424402203,-0.7616708973920463,1.0945954e+07
94.01625643013512,-138.47941255174257,20.036141294597666,8.326156e+06
2.770164646590615,-144.62446347525338,22.0883127570649,4.921977e+06
-119.55038110473114,45.753700708034245,42.92814055605825,8.991254e+06
-136.83496399206035,-32.25724171517194,6.104306493616783,9.338241e+06
42.753246346569455,89.69435028557962,44.47682335370772,1.4665325e+07
-101.99076267751663,-32.25634040558711,33.90750733685366,1.5510759e+07
-76.02412255179298,68.03626350278586,-3.0255359467557335,1.0534139e+07
-79.8800680550229,142.95103653413872,36.10656959415047,8.833316e+06
-131.88877703508751,-64.61485563874501,24.367058743008574,8.715618e+06
63.96054171962919,-157.62244873479983,21.78240117758332,9.369795e+06
119.63465967266444,41.83321498620515,18.7469898841734,2.9290002e+06
66.55997498948517,159.99116318160657,20.87880349703381,6.724826e+06
142.69010990648036,81.37568958812415,40.23176015016439,6.507976e+06
99.06302917857784,126.04527159220191,19.311327405755748,7.451846e+06
-124.41579374038855,38.51415755046611,40.00201312372969,9.857128e+06
16.90288000464909,-128.34550387471447,26.182834027055947,8.309294e+06
-153.38420618211345,-102.00584479580236,2.2589092903092403,2.1346438e+07
-127.2587212982347,31.989460978934545,5.960426997784206,7.917237e+06
-132.57115690768129,-103.97883511185934,20.63016095386454,6.4681865e+06
-56.93776134539249,111.70804493368769,46.893805733856425,1.6475266e+07
-21.70002619732267,-102.44615458779225,34.05742112940632,1.2125266e+07
131.03998654749836,47.181733212006804,29.033203357664256,1.4056247e+07
-32.72210464358801,-152.40533248120212,32.014852599380895,9.169434e+06
101.16648880260128,118.91399702356387,23.628440955481317,8.546546e+06
-65.11005149395848,-90.0465671587631,19.832778942075283,1.0173898e+07
49.54718335133279,90.92113343582787,33.51398233570301,9.927e+06
-163.1733336344972,14.540005542204257,25.81804722475738,1.1576044e+07
-97.92074026563378,-136.76470850193874,-4.911789482605939,2.8608896e+07
-49.21846007469304,-101.03340266699149,20.116533623377197,9.556745e+06
59.267271518281696,110.75947660294713,1.624265782240945,7.909674e+06
57.619836529017455,169.23257157482203,23.042514076088832,7.8673005e+06
-112.28694625030444,117.92257656579163,19.50688363940225,1.1695284e+07
109.73145830828679,-87.16481843526837,43.22403173337476,1.0324772e+07
97.10565203044024,-143.6713203741159,40.63561047307235,1.3536548e+07
141.70897623863306,116.75652381338404,32.11571560255697,1.2262808e+07
31.65404658223511,-91.10967995882326,42.39548104241843,1.2534132e+07
-107.81308510726308,-85.87161693730656,13.372150484375759,6.6935105e+06
-123.31310716311413,24.49749711763306,21.300556564210588,5.8736455e+06
-115.69163030186611,61.50328436861195,29.23193820251042,8.3110475e+06
-120.10776329527081,99.75682336567951,30.706404327729572,1.1662099e+07
-94.76443629265461,-135.60277527678207,47.21016166489639,1.8058436e+07
47.01678300202357,-165.47986906502072,14.533589332334138,4.3773455e+06
100.32979546681855,-73.82297262124533,45.706581025041906,1.183384e+07
-63.00235825933898,81.73036046790298,13.104544479975136,3.876368e+06
133.20357714993338,-54.96941209493994,41.102607747694854,7.397406e+06
92.6900117203046,-80.23211306277686,37.13106352311356,8.51538e+06
90.86755006660877,-116.58165021790805,32.73449054570721,8.902992e+06
-62.985684435153075,-73.79784545487529,42.08682674858495,1.1752258e+07
-4.251738041188474,-118.71391645416116,41.63891256387292,1.0227887e+07
44.385386041599816,144.35866655965123,36.72918037400263,6.4968195e+06
50.98435883474189,-177.5247007539035,15.288814688777741,4.6125015e+06
56.57849408461885,175.8319512066779,18.86026857818522,8.593541e+06
-51.240520780628174,128.85713213033642,17.57101337369014,9.03208e+06
-100.26122642690014,-131.11639416989274,10.003541325372682,9.610738e+06
80.14162937225007,-170.8981734002528,-1.819901686884275,1.3313118e+07
143.81519520051626,76.51702379626886,33.36392652425909,1.2477247e+07
-102.88985776890232,89.33855792225012,33.46927136569135,1.1023192e+07
72.29145462033728,-127.45244719962687,37.531048190946336,7.298359e+06
107.45145148226509,-29.895827364998922,43.622539310032415,7.473634e+06
20.149144432016584,137.3260986710876,29.770717835499244,8.493682e+06
-13.034645888873797,-139.90183863669364,22.561559345406092,5.4063185e+06
35.70015160936899,108.14420861505505,33.44459409762322,8.1894035e+06
92.50687127672302,84.12628114498665,-2.704742927151827,8.978352e+06
126.86935822428961,20.35139210280653,25.694169298610614,1.1897263e+07
-126.17914326347996,-54.142794305140995,18.04406779710441,9.499485e+06
49.4794795874848,94.17903171774111,23.788993904471123,6.261518e+06
-108.46999894677865,4.256648404923965,5.109696778455447,9.006262e+06
140.69696697969476,-69.84261082961228,9.74228158642302,3.8814945e+06
108.79174530523396,148.5144064104179,30.804103302313155,1.1178237e+07
66.55918324172194,145.72147672798735,1.4348025019883153,1.2064687e+07
-91.85691653649815,99.69552847087073,1.1117463201747504,5.811465e+06
82.52847588271044,-159.5287154242527,38.24100876526135,9.941956e+06
118.3593916347552,-69.42953886057285,40.92597466642784,5.1695575e+06
-45.644700315560016,-130.83029121666772,29.284031037576003,9.578341e+06
103.0627251271028,-10.779998986968565,28.139185621626282,1.3335916e+07
161.73164036709176,73.77195079474546,39.44017917042169,9.05227e+06
-26.63935011511404,138.7523574703568,40.65092726146402,7.4422425e+06
-171.6279479930176,48.54470980668114,20.84887993810845,1.9482758e+07
124.85939903855774,78.19731402812062,38.972662425702325,8.953723e+06
60.62400756351814,-74.32725964676408,42.14737239897099,1.2241885e+07
76.26368969325313,54.198790042731304,-0.5752882191964583,3.7791728e+06
-91.87021599381305,106.08861540085384,-1.1592384544365477,1.0965902e+07
-64.47338886478326,-130.63934364377695,16.584374653110327,1.0077718e+07
-172.41509680981898,22.68814711037203,34.643501724978854,1.3745097e+07
-33.441848421416154,-94.64085685916271,36.64315201502368,1.2435993e+07
151.2600816298994,19.840909799858025,18.198657945168915,3.433995e+06
-1.7868358806225046,157.82119639441083,7.787463952469462,1.4484613e+07
-132.85128062630966,61.47513367113903,33.305883813194924,9.65573e+06
-79.92068781853825,-159.71414986112555,38.277032185536996,1.0313172e+07
162.25701922476816,-40.892676681829755,37.88202774969601,1.1177342e+07
140.91664406733315,98.658729972743,35.9949411748819,9.647494e+06
98.63513751898915,121.583502977497,4.840697069321739,5.6980095e+06
88.88385253405983,131.46950482784257,17.044716839306652,6.489279e+06
89.41244725527616,-114.12162113568351,46.670325340976326,2.0013744e+07
74.41304770675055,118.79519453350319,15.072304843590215,4.6982175e+06
-86.22773632699663,-69.21197887106558,47.40502015322417,1.0776501e+07
159.31174958885362,71.47650644406366,16.592915253976006,3.5628228e+06
-163.15598325564122,-45.69963097719065,16.747974240695296,1.6867632e+07
-1.8751029983324656,-105.15992431265673,3.2896782895525085,8.054603e+06
-109.21709343023807,146.7780377102979,8.068672943421811,1.5261669e+07
22.65214734309481,118.11103224664862,30.8181558672522,8.18877e+06
-158.25264371785119,-86.7687116476369,10.196863793129602,1.2939296e+07
89.19216961270433,126.3366945374891,5.9797786519698946,3.7183115e+06
-63.284520257868046,171.1701493543589,31.62745914684598,1.2867251e+07
-30.39754147276122,169.31209205440376,18.509312141285978,1.7077304e+07
-89.87924219619039,158.03862284806024,10.367118322440525,1.8317436e+07
-58.70623187242353,-115.55900647918267,17.359204578959353,9.924856e+06
-19.019708014048575,173.57979081765308,2.7531499172521654,1.1489459e+07
-4.497668354035454,129.0789338013999,23.627495535079753,7.6829555e+06
-92.35326186990105,86.46358290793137,35.679757646951636,1.0458819e+07
-87.6254845949358,114.21794922115242,10.388851646012395,9.110216e+06
4.37166614497761,103.87255823539158,13.245014457966207,8.006326e+06
57.08162695460641,-96.54861704356689,29.320508590346954,9.947871e+06
137.21220832651318,106.33434424055463,47.07917310891003,2.374772e+07
-149.68968428057346,-7.115628275593679,32.775123611466604,4.755929e+06
117.82218268046915,-7.927062194092913,24.985386632529277,1.1189079e+07
68.86260491519982,-121.35938147470159,19.85724533799668,4.402962e+06
155.48006340971267,-89.68202948399212,4.111185081181489,6.1751625e+06
-157.75612951842226,-48.44351233084288,16.868485309829218,1.5397319e+07
80.92353089393907,144.81268051539354,25.580752829246553,8.0930205e+06
94.70166024307957,61.4563637262242,42.68123640372875,1.1704715e+07
-64.46471865288098,149.72268012766693,30.47599529838326,9.826613e+06
-102.89718044369364,-140.9083968125701,5.712743392070868,1.5180625e+07
-107.95599774633713,-135.88749367789273,8.952025335643551,1.1588263e+07
47.293380273847276,146.42644412489204,6.308687627363875,6.0854355e+06
12.94266747260707,-185.28206899978423,46.587764603434294,2.9148466e+07
98.04637546386476,82.48832118655025,46.683503372068145,9.597058e+06
-58.70959508776482,-173.11714894356703,1.5272280489625272,1.6108045e+07
58.28744486733627,85.16937684826036,44.32129519629198,1.3801398e+07
87.67612507548859,-151.8597216162425,14.758210207000444,5.3694905e+06
159.50034636850114,27.325079206003892,-2.6059648295067914,1.1529403e+07
-23.416032067745903,105.7420387410405,45.61777360392116,1.5521884e+07
-137.82341861951255,-52.60343035976073,42.83638085849857,8.124452e+06
115.50289252162156,86.11276318089182,17.733630211608382,4.305477e+06
2.239212844149222,119.84103962748196,28.972605960660083,8.970332e+06
-122.51422094140895,114.98561895259036,19.88362917302871,1.3243972e+07
139.95298407539133,-94.47159735709101,26.908873069615506,7.9582875e+06
27.44235448660902,90.52271732538804,-1.3899625521175791,1.3187712e+07
92.3707301089587,-90.02640801110391,-4.728453142168026,1.479625e+07
-9.550456827722229,136.81290691097928,38.31835943629819,7.935142e+06
-13.367537971027588,101.11992751897213,40.34590702129863,7.349996e+06
-6.123647248164133,113.74591522208259,17.381157740110076,7.5066795e+06
-103.49647089509752,-21.485311118910914,37.551951578320406,1.5132433e+07
-173.02315769139756,55.151507388993956,35.4079268883919,2.0992838e+07
-103.17394946710215,-36.36149872459876,44.925219533462545,1.0671925e+07
-142.82614073009154,42.3645325215947,21.823907044287697,9.032344e+06
166.95761429877422,-73.40039188244111,30.227673506267763,5.0713305e+06
-72.26281457833599,-115.23910016258498,37.299846724196144,1.1088008e+07
-89.61575811435796,95.21078029249901,42.43293187346382,4.8244675e+06
-173.91209431184663,-23.756227364445465,20.29149842093282,1.9770742e+07
113.93310776815338,-126.7908148503329,-4.0925053977836,1.0602561e+07
102.83525582832868,79.68172696727936,15.688186994853242,4.519617e+06
101.41335246046627,-125.74162232732671,19.678270827250024,7.6300715e+06
7.138229126918021,143.43800890483556,32.510097090328664,9.70604e+06
71.94549543617586,157.12911293416448,23.697904314286358,7.381187e+06
79.99956053926189,-129.8697751965568,15.126808385984011,3.7157122e+06
5.431701621026718,145.72581614152386,5.3973424829908545,1.2197716e+07
-125.79982345438378,-131.05045515795672,25.578794752812623,1.0461551e+07
141.63855079487354,47.91747864228495,-1.3150221264605595,8.3554075e+06
-107.63162034535894,38.84128754640744,9.369307715549327,7.350683e+06
-106.24037554318346,106.08247253535035,7.867228639287887,6.5359005e+06
29.4230431303196,-158.2128670344423,22.105865145002266,6.887464e+06
-118.64261870839638,-98.24454119842376,-3.650787810417793,2.1047138e+07
-126.08001248778264,-0.6537406942448456,4.62992952522531,8.86996e+06
-98.12051661069114,-105.83421712264682,39.986812061744715,1.0876326e+07
-186.8417951053133,-23.538279074985724,45.159593275636574,2.061074e+07
174.7775653111862,47.394053538781066,-3.9134466862750927,1.2863917e+07
72.347493739534,142.87923590953613,8.7306282484097,2.0535039e+06
-54.46064442487196,-167.17553437194897,35.52224111670253,7.481248e+06
114.56017086092822,22.43363772797639,31.418145752031474,1.5726262e+07
-110.8490386766936,-80.64031852100504,19.127594741110478,7.5406745e+06
91.15598007671605,-74.87440941567934,-0.5203242122065385,8.739192e+06
-125.09768747105387,-122.80701082316878,-2.8257142019405275,2.8374164e+07
-60.41219572282538,-138.08361441377585,44.7386555966307,1.0790337e+07
-73.63663179353352,-106.13322190368382,-0.6608351704340991,9.804051e+06
115.52615140500195,90.66111333022548,33.35897207409078,1.2981159e+07
-161.09941392950176,34.10343106514725,34.613597694292245,1.139942e+07
47.6293321728499,-100.84196425627802,27.666940183875944,8.633226e+06
-53.91608018467252,-123.62573664606735,32.32690511619021,1.1042749e+07
86.54612054946352,96.89933305822274,37.62912344583849,1.0699708e+07
141.91235241746676,36.35537130637738,38.21756505275918,8.0694715e+06
19.008652352387884,-109.77053393781695,32.62758267246307,1.1726703e+07
-103.84405069394752,-100.98701732074291,15.895575031569084,6.2189045e+06
84.22670496359189,-153.53220240164077,34.76110836537416,9.10895e+06
-16.74183424129859,130.27862231512376,15.59405339724766,1.0249235e+07
84.97573621350955,45.20616500811548,44.04679665277292,1.4375129e+07
-63.31703112207925,-82.62899931487757,23.091108519729673,1.0742588e+07
-100.27819957273056,15.104096933057775,-0.461780362895795,7.1405995e+06
134.21593840262807,92.18682254242754,-4.222422674121894,1.5384108e+07
-70.90635389270227,-132.7273680810079,22.70960987881532,7.348213e+06
-104.5592732025776,-114.41945599115498,33.88978789817161,1.2814607e+07
-156.36163582189195,24.00279693619524,40.49215559763514,1.2744391e+07
24.60649363277264,-123.96414116562212,1.2436838133714059,8.999016e+06
-49.01828694059515,170.3379586671906,6.277904290701703,1.6738658e+07
-85.02670780837187,-120.87421158014418,15.948884954487138,8.444719e+06
51.00826132557623,-81.03353746266637,37.3074889314682,1.2306712e+07
45.96443858160927,-139.2260985763802,25.235941663817268,9.487901e+06
-126.71366455617527,9.730616135915682,31.812978454722955,8.49806e+06
17.46693482862773,103.2491641950233,35.76941300941001,7.6980465e+06
-11.029614315173035,183.65586135614979,17.722843876094757,2.0491116e+07
179.60718984330208,-40.640160829860804,28.64300718000841,4.5446165e+06
-63.123590346352074,91.8587725943471,16.56877686882625,4.2829205e+06
-94.18989946313134,-69.46738258843533,39.737398888794615,1.4148856e+07
-53.880603084207934,-171.55394916992836,25.14475918665689,7.438377e+06
-17.79283128773801,159.2243023075116,35.02264160059666,1.2320863e+07
97.12773861823234,145.3782927688669,40.627316020648244,4.2279855e+06
24.54258494646325,-87.65810323210674,44.33585620540345,1.3797818e+07
-43.668602491693775,95.29477103251719,21.806925415287303,8.201406e+06
139.08709128875245,82.01184166745429,25.17541306245092,1.0538298e+07
-99.70265406434034,-106.22108378317358,23.66974864112619,8.2267225e+06
-38.18416348199074,-135.47445906787124,16.846149440329704,1.0084736e+07
-153.1027971106837,-95.2111248598162,36.97678417630166,1.1351464e+07
46.66045338685038,-132.1559022295072,8.069420865311598,1.0295964e+07
52.9241954510035,-86.42974169475912,39.66231569275566,1.171448e+07
74.42549506781393,95.7961660636596,31.759865788554578,1.1046832e+07
97.29850412907564,-141.94971976044482,23.69838446071212,1.1090824e+07
38.99231663322021,-105.40486917037288,8.418994816488732,1.1024648e+07
17.650769565006584,109.54283110058851,44.15705238480999,1.2422117e+07
127.9388474792097,-45.98025500353012,33.79037524112793,9.168624e+06
125.755348236247,7.364151691842978,42.151403961656506,4.8236035e+06
-0.49493680648535593,149.93663438733807,45.74060961636037,1.5555701e+07
-121.65625420877099,-95.38394512565094,-0.951575888435499,1.6984936e+07
166.59548787449125,38.76081708033712,32.5068141528952,1.0636089e+07
-104.69293259311158,70.8724191485399,30.01449603768019,1.0183667e+07
-129.52564280241793,77.12401663434787,6.647525436963424,4.94806e+06
91.98122795968243,-127.94847148136208,4.403987811191342,6.974724e+06
-48.61002271995082,-127.24897200172171,25.155378689807055,7.7530105e+06
-116.11554593014759,-78.16197820084719,24.113259470251474,8.844592e+06
-121.34247734206673,96.34169516897572,11.632549749349451,8.974361e+06
64.00556354314892,-146.40568358854833,24.38472018108843,1.0385671e+07
-74.42277524492536,129.68737645430429,31.749396310987883,1.0115603e+07
-139.24236981233938,49.201688146625514,17.334479928024006,1.0663566e+07
124.78472771254275,30.427643961688972,29.412216351764933,1.4606947e+07
123.23902041618322,-10.76973388894288,43.709441062974705,3.8516498e+06
-157.43824544780875,-49.121758944087105,12.447417173554289,1.4435477e+07
157.85561290220068,-64.86302880098754,34.83699703970754,7.4209885e+06
8.671549871239876,180.1548656277331,29.03458256663798,1.519683e+07
-55.59103516183836,93.8721527566534,8.170110043104888,7.33069e+06
80.36899379874171,122.90247775771064,-1.6666313875149257,1.6306083e+07
127.57235412564023,-54.26928916049767,0.08694135752047637,8.631677e+06
79.66694129663762,-132.6259880090722,37.4136097254916,6.593081e+06
-104.00803797696794,40.22912551097261,20.167322419307336,5.211263e+06
25.901660254772906,-141.22351928369295,-3.363417019849072,1.4429185e+07
-52.563056826872554,140.8899959906363,6.9924981236566115,1.3044605e+07
-57.74549103672742,102.40825644386655,19.337732485360487,5.737338e+06
121.56528196335705,42.11161091160767,-2.9301193231564624,4.1867265e+06
-50.64052235509712,-132.13875265825226,32.08294299187411,1.0281071e+07
-64.50373631369882,112.26484694114936,3.7933801873507655,7.157619e+06
176.21499948842268,-3.08377338226515,27.45080208603343,8.652937e+06
90.00412824264902,67.75781423102114,36.20592976354894,1.483284e+07
-105.39200876843924,-41.23477078018402,38.404552463693484,1.52635e+07
-173.8846966388982,-19.000784116839327,33.44369643196022,8.56254e+06
-121.32781120805238,-51.43188519065299,36.74805554643697,1.3994242e+07
-108.86626442981901,145.8097981515752,0.6369402119865996,1.5904444e+07
113.55229733238048,-145.42247270791148,36.93506267573889,1.2965241e+07
-10.97985857993092,173.14947482854893,12.725026452891132,1.9252262e+07
169.65377804275607,-14.829541626353745,19.535113805982146,6.70092e+06
-107.56409890153122,-28.91322739144985,3.905004712219651,8.034042e+06
140.3106151916664,22.365764886676573,26.498482427353068,1.2185272e+07
-101.26902336782449,141.54093124410605,46.121760728404595,1.1908389e+07
146.01675247360976,-119.47150211703597,45.454430931547506,4.4850748e+07
-109.44103214738696,137.16919884872345,11.820779969272646,1.539336e+07
-5.455250328067194,168.7753434418437,11.733402231100637,1.7712494e+07
24.916194075369305,-159.66183851479516,13.537296324924379,7.762671e+06
85.95818373832958,161.29194268011742,21.972874945496645,9.410041e+06
151.8422222665995,-72.70393073551827,34.78454329660366,6.609053e+06
-105.8345268743949,93.3334276180849,3.477664233747992,3.2090132e+06
116.33869246236361,46.69076359466641,3.6417445211114203,1.0074526e+07
103.65142345090699,-91.7485835049575,9.860387799637133,6.0037195e+06
71.80488000016447,72.31440143894122,47.22565369200683,1.4901828e+07
31.94339949532528,-122.21171942399573,23.155355087481198,4.970159e+06
145.87714167822753,90.38667332997943,33.894745197255055,1.1570333e+07
-49.79167311013873,-94.44081127799015,18.690592481146385,1.0422515e+07
-81.89300979925474,-101.08272638728457,42.941880296398686,8.543113e+06
159.8528326002878,50.03710621014529,12.7639363425317,7.856473e+06
-128.515970880821,-120.20916211327832,8.57877512336087,1.1207565e+07
129.96225452835517,28.840628451588827,32.50366108491788,1.4699498e+07
38.780684892820005,-106.29450812497825,21.380707221806734,2.0037718e+06
13.657083574260383,-129.13902105890708,32.7904248038388,1.1986472e+07
-77.07262138633854,156.6523330167244,28.204695004123153,9.873856e+06
75.56291835098438,-142.1767287026464,40.737464713575555,9.138222e+06
-165.9782028764285,37.40483509184975,7.402061179827673,1.0806502e+07
116.07570014223268,-71.18365436200222,-4.376152713653849,1.1621322e+07
-91.45074363418928,60.01895935196229,40.314543415388776,7.752897e+06
111.60384137624528,-12.485382687621836,22.214588031707017,8.20792e+06
-7.261847401846154,-166.36969030588443,30.519419608992855,1.0008659e+07
-90.01374464918284,-158.65525631968382,17.940130953528016,1.0546794e+07
46.67286046573972,125.16342419773707,29.564035966438325,7.6763805e+06
-126.73941047884574,-66.9026154474499,26.885478528505413,9.573256e+06
-151.5786799382802,-60.939351907322155,5.540627534437482,1.0033503e+07
99.44670592159412,-151.83852804785985,39.33303591942758,1.378881e+07
-32.50270933565011,149.02405117456294,46.61039916186529,1.6943274e+07
-95.2901274525876,24.642770845100245,0.7437179603420428,7.2202365e+06
-114.67602532926921,49.5768660260473,24.564567682391015,5.0824745e+06
96.78535701239048,-97.1440436287084,28.229388608845746,1.0136706e+07
11.054567614895575,-105.36879761241029,0.26842720594806996,8.822211e+06
144.06920953217207,61.919418221037404,24.810301009961254,1.0352881e+07
-173.71708429305133,-23.830680173436434,-3.1906095614576526,1.6285034e+07
19.77358853366701,-134.30568715616732,41.67690357701448,1.0257965e+07
-32.696684661291584,-156.3164775427218,3.5687856059521113,1.0685849e+07
-119.83194838962245,65.05120044244137,38.88909244722465,9.746123e+06
-164.7169901673399,26.1367811159264,34.66221031780315,1.1246001e+07
-136.9388573902493,-37.550347364063356,12.645809514857586,1.2148114e+07
93.9789291406102,37.41126568219545,38.083091596574626,1.6432221e+07
101.3610897198635,-91.82201670637315,12.263654789997485,5.3737545e+06
-80.88133775643334,-136.3484497181596,18.37163819194792,8.377708e+06
76.70837642985526,86.10894551814084,5.5195931692787905,4.2381745e+06
137.27650508607252,-8.464802123989614,13.647547831586625,4.189746e+06
90.22501687162992,-3.590263475291522,-0.07246113325911546,9.348755e+06
45.243760744951715,90.37012202999256,-2.7926730008474405,1.4131505e+07
161.48587395380036,-40.281284964637535,11.61231076636496,5.6605675e+06
89.33516140858092,-135.61412716296093,-1.7951144851350174,9.516686e+06
-101.65003256210024,49.00131753679014,11.009846376134124,5.8431175e+06
61.395548190878856,-108.6597452859078,43.19579223387561,9.696144e+06
-110.77576308144006,-79.2109565007527,17.49022838312712,7.4984e+06
-137.9711377641538,84.07274320853793,26.91380844486677,1.1706562e+07
79.04810517345487,105.07424531566511,21.705562661955494,5.6977995e+06
-127.34226841040793,41.66380058121629,47.1646167498652,1.3482313e+07
-22.372170330388684,177.29635148789106,18.4690927556325,1.9035274e+07
-97.19728701884458,29.35909913391717,21.011064521001657,7.1507555e+06
48.24136415096376,92.42959603135301,28.27371728272714,8.1397465e+06
142.36278344492888,-25.147417517590608,8.79205529664652,8.2459105e+06
-131.98151188779792,-107.8142607758203,43.07660027955592,1.0285003e+07
185.73686773206316,6.639965443491434,41.736718671660654,2.8585616e+07
15.461570356512679,-125.24010074959779,26.99622351100886,8.858605e+06
-94.4557711071619,72.69490150433649,35.58397301019317,1.0809004e+07
-111.62978146139184,140.7865101912068,6.0322014500423355,1.2806135e+07
-148.30279093987863,-24.030158049831755,23.166758835339312,1.0337007e+07
153.03230228124914,-24.607102359239917,33.70344271569241,6.003053e+06
-42.61944753094559,154.77913422576148,0.39015969416312685,7.434318e+06
36.61352421206985,-108.15188922639058,21.014981161635305,1.7995171e+06
160.93699397384114,-82.05780296262529,38.22756325118316,2.024415e+07
166.69212949335446,26.755519430166203,19.93763045342831,6.441654e+06
-112.4945801874273,38.77224203279388,47.19146631353232,1.3453878e+07
65.96216551087014,132.29178306617496,39.03497342271275,3.8697608e+06
-114.48896822357723,142.0102242703705,32.949914600817934,1.3695723e+07
-47.97834535038331,-147.11586511116698,-2.792505586433138,1.23607e+07
75.79572403367138,96.88409539583301,32.66644621416843,1.1236558e+07
174.82902477974966,41.592883599404615,-0.015710343807487648,1.5709643e+07
166.65481615375512,-11.12499329400211,-3.7849677250646425,1.3722658e+07
117.76207022613254,24.75169777539108,18.417291999867746,3.0189295e+06
-165.68239765716427,-86.23489463071286,-3.549720090987376,2.3152258e+07
97.22792705117843,-146.4127046829391,12.030067990374267,5.407596e+06
142.90679470225723,-47.81628424511149,38.21557141684952,4.80956e+06
-89.30850115860478,-74.71330849765674,-1.232876565522051,9.17669e+06
48.825379345414035,-123.4346472177589,7.678274662085448,1.0369449e+07
-54.082932869151875,-99.37676984938668,18.824376755687243,1.0087694e+07
-23.532524899772454,-97.31736312261616,43.524425800027295,1.0802742e+07
105.0669109804129,13.579131512309376,42.9951906198189,1.0875768e+07
-9.78674386055701,-145.6079464619222,34.69997458755826,1.0209316e+07
78.19567453927203,149.508043454554,1.235355878459218,1.3936092e+07
-139.32289948249877,30.890407419276418,18.027233956355445,1.0725869e+07
168.7378046048699,-55.498571530579795,46.15279957769005,4.442304e+07
-28.231727851108616,-167.71294036832148,-3.8889159264289304,1.1045795e+07
-129.06127889254134,89.82047433276222,5.902989802659726,5.783183e+06
135.8810826597932,101.9407457665422,1.2763253160274515,1.1359804e+07
87.84482338730913,-94.36920732564964,46.72390204178986,1.5659469e+07
-110.72390556148335,75.00861703266196,15.74169204147843,5.6989215e+06
-59.23241781983043,-120.909053205076,33.118455409768956,1.1390992e+07
128.15200746316907,56.93513865859012,8.078104088463643,1.0871423e+07
-125.80881478255885,-57.33080317476927,15.850389072291417,9.58155e+06
103.17307886990527,95.81225722718403,2.495001372277809,4.0241095e+06
-146.6862886516161,-47.18634798315807,-2.6126851040470993,9.195574e+06
-59.702647567583824,118.47731327224766,36.26787986827231,8.985301e+06
32.80011997537778,173.39605915394884,22.914167457433287,1.0662428e+07
123.27438523716745,61.96350397187689,15.260126021970327,4.1827315e+06
53.1974345212897,-161.4847554607435,39.34587256615898,8.609298e+06
-116.78375565048671,6.2820682638395065,11.770352027317827,1.0558548e+07
-137.906839402808,86.41353043737473,2.885609236792629,1.1676629e+07
-174.86642297827905,-0.8601060952585157,29.672347119616433,1.244183e+07
-161.42984212423818,77.07409278949518,5.405730065912275,1.2430926e+07
70.48002039724372,-143.5697523498137,26.04686985116138,1.1363553e+07
131.2406322453375,-15.704998583833742,5.404284147919795,1.1304096e+07
-94.64258024086658,95.18257168318104,28.469131394839508,1.0149042e+07
-78.730261807693,84.95265435305362,32.50074249020135,1.2050701e+07
-113.18631810282591,102.63312311573797,22.396715066175066,9.111142e+06
-8.585725299945636,-106.87641192534944,23.529585989628043,6.050898e+06
99.36376591411766,121.70790605599507,1.1700405935527143,9.791478e+06
-19.839102806903384,183.36277576584877,-0.8352972818351792,8.88037e+06
-177.52471706730066,21.17933460448188,37.844199821825136,1.7687052e+07
35.208965964331895,-136.56379296610748,8.692765108460486,1.0836137e+07
119.52568964764987,-41.79341393174957,1.9824590944147564,9.858142e+06
40.4445888730709,-129.62751764113705,15.174465137878295,5.42058e+06
-162.15092905373467,-86.14932005331522,24.902678318851812,1.2852281e+07
118.59070332873806,1.5495493048146898,24.50542359118633,1.0731071e+07
179.52303435406617,-30.052447853271673,8.381243067631491,1.1836043e+07
-57.16807411239938,144.5261598690352,34.274282602885464,1.0063885e+07
126.6880855160839,-71.4826118500595,19.950196734570444,7.6535005e+06
70.70999906999322,76.31552155817934,13.423084398639258,5.6187525e+06
57.91196278206087,-156.67229893990964,15.251933393740817,3.6368408e+06
-148.008893668057,98.57055604041358,12.549345037338743,1.3812632e+07
136.25232968231927,-87.9187736640286,7.3875695695556125,3.688381e+06
-144.85587008761613,103.06372523759472,-3.60073474429608,3.7930828e+07
-176.09770329432294,-11.784510086380266,21.122006227857703,2.0184872e+07
-143.83055045137542,15.377395443184213,5.761537507303328,9.244293e+06
-106.02977613971274,-115.40847860880214,26.04942872643488,9.276245e+06
-77.2274792345284,-172.80867365133082,47.103751528616655,2.7820276e+07
126.3393546753274,-141.55931394341619,-3.4863229781416325,1.0621875e+07
74.46342541077905,135.41825997051615,14.73860390313494,5.017782e+06
-24.407979335229527,-149.73297549253832,6.221087130670274,1.2629803e+07
-149.92737937105377,-102.96657280597037,40.3905789988677,1.1400483e+07
-149.5825214554216,-113.50961748929626,44.38576415871052,1.4181805e+07
127.97974473110929,36.7877102965021,26.583779339894512,1.2586505e+07
-143.05527071646037,-80.76918564214712,9.847381119189775,9.558967e+06
-38.99747167553588,142.98556278365743,-0.5162667925874911,9.034859e+06
121.04949939495435,-27.91163460886156,22.53197892218829,9.0085e+06
-109.01631597697573,-18.04941349167325,45.19017194196428,1.0386636e+07
-45.792782456616436,103.56043009138614,35.43107304909439,9.688341e+06
167.88008221926458,-37.567850834254955,-0.3812685260197795,1.3364404e+07
-28.095767896999178,-123.45802570822882,6.3530990243739325,1.0339522e+07
-182.02017956362423,27.79405453027377,8.622171745151858,1.3508711e+07
-32.6996768315004,-108.77410029982059,31.687400832170347,1.1664374e+07
-77.40111684355462,-98.22584800217986,46.204225177773196,9.373967e+06
-42.589847826341696,91.44646690911077,46.08029544418375,1.6643049e+07
84.55096079605636,87.05282270332845,28.867981953984902,1.1090519e+07
129.16241316130106,-60.46223625705568,45.103520548819496,1.67722e+07
-38.16446102233613,-174.9975286628,31.92984272719717,8.062701e+06
150.72241622521688,-69.03527447596386,22.550166609126556,8.0601725e+06
-76.85387906586199,111.93795151765318,33.16450026348722,1.0855242e+07
-4.073295378590615,132.65767925331,32.38768503963336,9.57847e+06
99.53694750659207,54.32341039216718,43.19514457471266,1.0853883e+07
175.5090426952392,-39.986855919467104,32.54301415779201,6.854927e+06
120.62285362577005,8.734021070513137,35.66174111394086,1.4176975e+07
-40.034121208591245,149.3157077186649,45.39324445802743,1.3499565e+07
-149.59856853730665,102.51864434068267,38.7209167068412,2.0591472e+07
-35.79758455876018,139.48847975823202,21.814647377631015,8.486288e+06
-138.90629227091694,103.86683646504578,41.305813234955856,1.6638014e+07
-111.56993287782875,-131.35938452747945,0.2281036406133463,2.1938052e+07
102.23697633452421,-10.094120707618487,27.694895906729887,1.2974957e+07
63.831381590293745,146.85198009680323,6.1684276173471355,3.1151818e+06
-107.29384441547064,12.934443276439767,4.148213524641319,8.355593e+06
130.3153399044371,-39.254536978739594,44.28214840937572,1.0432108e+07
-101.52267098730539,-92.89400915515014,-2.490917873549874,1.5448498e+07
-75.71903308047938,-158.65496412651373,20.14992577697881,9.077111e+06
78.10655642638864,-69.0232615925768,38.83601800959718,1.1321792e+07
23.06546672131114,108.27611756629352,11.306365638709782,8.0023885e+06
-12.99918718151622,158.4059166487276,-1.764491846018716,1.3269366e+07
-125.08042306782627,9.906102157300808,45.902985572902494,9.822954e+06
-156.50505133079923,-71.67197700569025,46.634978202799566,7.9875145e+06
92.74681993145816,125.89380165318038,8.725919370092788,5.2565035e+06
-36.636756165922975,113.3812356242845,7.252906302573755,1.0616151e+07
154.03835608729332,89.33367778798737,1.1449934467366543,1.3035077e+07
-111.15396174338623,-67.03186003732085,42.400934073941826,1.1126622e+07
-97.77070341219142,121.77862352665329,46.162384727285115,1.1507565e+07
-89.20583972075691,112.64916119635222,24.50656671348736,7.958283e+06
148.73422725110805,56.278420533127594,39.12632651032396,6.7404365e+06
107.76228567813308,-55.09669142786703,14.532465014549766,5.314981e+06
134.01736336100856,-68.49364780617103,17.90743922965109,6.296174e+06
97.4726084661607,92.64106594221488,32.89847413181061,1.2723948e+07
-90.53350719530454,-140.82776499563008,21.8460778043819,7.3008955e+06
57.18599546250807,89.87584696462966,-1.740922870840498,1.1151061e+07
26.77486611387425,-135.0399428578323,-3.0654555472541376,1.4078761e+07
163.7448296828029,-8.491154406601964,27.147021890235486,9.160204e+06
126.45975026730014,79.0444974342127,26.964868198590665,1.1972421e+07
-144.9440208649508,21.58182407133569,19.490374953582872,1.1435928e+07
-137.39808952029722,78.67126519439273,24.974345501789966,1.0525203e+07
-104.86561117804975,136.39700637331947,32.71541832165716,1.1602312e+07
-38.48278199981414,-152.68182248707643,8.425170225174362,1.4469402e+07
156.77455356278142,-66.18331374694338,6.972390858152532,6.426033e+06
117.68404340282336,-25.628141202754588,38.42849349693288,9.775086e+06
-131.4488182352023,114.06975782964015,19.328786136518264,1.5189121e+07
24.82327362761336,142.85753985097722,2.5054037489888623,1.1536242e+07
-61.13394623751199,165.19243306990694,46.98107885893879,1.8061816e+07
-80.0326234819332,111.48730481054241,20.268624511992442,6.382043e+06
175.63090843151446,-45.68041883213505,4.933266269710631,1.2168458e+07
-12.927955004176225,154.43803505554052,46.3337054278393,1.7500624e+07
-18.178088164305706,-163.91289145478916,1.1622863197939517,7.2690995e+06
140.72276848146583,-65.99748729756308,47.40453616474224,3.2135142e+07
129.81203718296712,-87.47830339213189,9.55124689494982,3.5992118e+06
105.89338693334412,-113.69234250056536,36.97088641865588,4.82105e+06
166.13012750241063,63.350254379715466,44.348389429789336,2.2072304e+07
45.26924963596795,92.42835368547912,32.30593851582863,9.24088e+06
170.0019584519057,-35.25542926225822,41.642305419459,2.4730106e+07
-63.337665228283576,-98.03265985981207,38.863359379429745,1.189384e+07
118.5368554192432,-138.7539461561414,3.325201992561129,6.741004e+06
-123.19003004947312,61.439388383703374,21.275045070967245,5.699254e+06
-50.227845519765204,-100.64458916688244,36.91446747243446,1.2391838e+07
-63.08925069335638,87.18416146407566,-1.5326793845380806,9.574679e+06
-128.45286895339356,-30.876164688181433,9.947168906823373,1.1108139e+07
-100.49846881211973,49.94299124050818,29.23455860933891,1.0571106e+07
-124.37204097165785,-132.41937054014807,26.411728772721002,1.1111891e+07
-128.49416994557856,54.80487928225827,38.07479197375925,1.0280146e+07
-51.61158835100758,99.74459494144236,11.852565295059627,7.047954e+06
-3.9939421050752055,-166.5307026076951,11.085936074050803,1.3300136e+07
-176.36029119362328,46.02954404558312,32.288929805391255,1.9564922e+07
168.77491149498923,-22.39731450485985,42.10015920910522,2.2812842e+07
68.10945869511505,111.59667491200815,1.436290422398261,7.2998325e+06
-130.6441858035186,37.85821277867453,6.783274928095103,7.8346685e+06
-118.3527532014001,24.57762465275377,33.8259293511299,1.0561737e+07
106.92652678918928,84.61528614472417,37.3963516037104,1.1769965e+07
182.18595899286385,45.26293863226715,-3.679922494718274,1.4667938e+07
93.00347129732376,-92.03988270090963,47.210375436942165,1.7556026e+07
130.2111675285721,37.81010924191696,33.70530705658015,1.4395193e+07
-169.23645414915148,37.30795346387882,0.8385616093238684,1.9286822e+07
151.4209203192218,-39.2911873128559,19.92661618216377,6.6892025e+06
-73.91863486716011,-101.90508548813919,35.73667706681371,1.3225543e+07
-101.44109029417696,-21.00534655983978,32.18010490731957,1.4635025e+07
-98.29016982211134,93.25950481138523,43.16521548749969,6.068939e+06
-156.2856550809937,70.60418450101866,-1.9873954048620908,3.037609e+07
27.994864189011707,-158.22224448906096,18.324209806792105,3.681075e+06
106.40806414937174,10.587103853245452,5.12126356054838,1.1435674e+07
-8.751066583338485,-180.23455591199814,-4.141384005128833,8.995701e+06
-135.29921243429476,58.720269357139955,14.173837925219633,1.0017862e+07
151.57550208321044,-74.00404825448166,41.4130022957218,2.164577e+07
-69.22215200901971,107.50951849685343,4.331428234529006,6.4799095e+06
-138.92253005526265,-51.02737015426371,36.50348112721035,1.0884733e+07
72.17487723676055,-140.40407324458056,25.983479130606497,1.1123391e+07
-110.73222656332561,73.31629967465608,44.44792147128069,9.069971e+06
100.70960115845293,-62.872595617165125,-4.59595207560273,1.3840231e+07
-39.49503653076866,-162.69705985376302,28.386980606989066,7.94371e+06
-3.543015860915603,154.70320865820668,43.78132795546694,1.2671445e+07
-144.35085911744216,41.807188414077416,3.6300719708010094,9.103162e+06
10.730421963893917,-187.93615966204155,43.393545906056275,1.8459848e+07
1.185040284975912,-119.68474359464393,-1.2398209016084243,9.757133e+06
-53.14235872636951,-152.67052708992856,25.918257002328914,7.058252e+06
82.49009333691617,-99.15859265742127,19.378815525208626,4.860347e+06
-149.0872968281601,10.203754718051698,17.46014808672904,1.3912924e+07
-146.57047531991992,57.00152593088911,45.340764447361586,1.6290114e+07
-1.4627440684079431,-178.0149774223731,13.473567193066117,1.1439431e+07
-8.308983111634205,117.08392889528271,9.388960707299352,1.0886423e+07
136.24363515494747,122.80682741338433,7.890882072812077,1.5655159e+07
-67.25637018560172,-131.77343679967217,40.066086665130506,7.0980105e+06
63.80446430975308,83.70537765352213,42.441263123495666,1.2783421e+07
5.785150443448288,-153.41764594734238,17.342622659435342,6.043773e+06
-154.58503653039133,90.43184063946967,10.876386344555964,1.2588046e+07
166.1585974441657,71.26654389060383,20.92231536327462,6.369189e+06
-170.10199929392203,-49.6478167154886,34.33051136625629,7.082135e+06
80.82390937898043,-124.58328709779605,26.1786614075626,1.0282248e+07
116.86935425746651,-0.18751812971328263,4.247262795333127,1.1819638e+07
75.76188552887254,-79.46922526077284,-0.04484135723897969,9.2336e+06
153.0104601864868,-79.5982630072904,-1.6661833937472872,7.848888e+06
-4.370750692428459,175.94324591068062,38.61088963225259,1.5930924e+07
-50.25370472354984,121.72694942576754,8.56417354899169,1.1020089e+07
-18.609707797786882,-124.9403599291201,26.615022337204454,8.1912975e+06
110.53218611007469,-5.275544507877157,-4.7131952210653045,1.0828573e+07
73.37886716532347,84.57896433722874,44.158909906839305,1.1829864e+07
-57.47406300671841,-131.38643754479614,33.77895431593632,1.0318374e+07
67.57365911443776,-81.34114637776713,-0.7250445994775769,1.0086539e+07
-54.84658059414187,-83.81278116048763,-1.3755186819121497,8.665694e+06
-155.9931222114154,54.616163569373896,-3.8859688648060073,3.3688144e+07
144.9201021781638,113.92070605043938,34.820719585754965,1.0319675e+07
110.16452457046512,-47.5908646086053,26.184529778850838,1.1223055e+07
-128.33593937099403,-53.389637371858754,12.576523741656917,1.0131186e+07
-70.10418117046342,-73.46992450443706,0.6202551503796976,5.2772935e+06
34.12094410275466,-126.22609166919992,16.665370805292895,4.432558e+06
-82.50446040928256,77.4923699667894,30.52844916870826,1.2155547e+07
4.626898260717638,-145.14158345490932,-4.213475914189606,1.5708549e+07
-34.114302906416185,-149.58814704383414,46.44228839300919,1.8220714e+07
168.81728664600791,-40.63037768091249,41.43868101809132,2.4461174e+07
112.8003321092711,41.50687181295501,4.490398132947688,1.0526891e+07
120.97167390398897,-64.11098468889028,9.377307674063807,5.955901e+06
27.572228569607404,92.99681578988094,47.27546717621966,1.9786124e+07
-112.18348798018297,-15.187817012563045,34.05211169981096,1.3870661e+07
96.668178703884,-76.78606528434169,20.979854694409195,6.9387235e+06
-183.18132243521183,38.470850698814814,41.553757540130995,2.6334308e+07
-137.4302784922645,90.3461384099491,43.25148424206455,1.523725e+07
163.79373982162377,19.436683366618865,10.89200703074845,1.0031849e+07
28.12214637638749,-120.45019159897818,41.264230451666435,1.0530232e+07
-76.97583094532928,136.63980742599188,4.245058449558167,8.560495e+06
158.11483829108363,-5.869100534110004,-3.554243759664387,1.2304058e+07
-70.037635966056,134.92602441938806,28.004400815057263,8.895736e+06
-154.95315021862615,1.68258135420092,8.829063670988786,1.2464184e+07
25.430646236837163,147.10319925308613,36.46598511756323,8.2135315e+06
-46.44985192367477,151.9399664090417,37.82767968146964,9.69547e+06
-53.37856526515986,142.24129767221376,-4.048104655495874,1.3751829e+07
-13.827493437787211,-125.84904114805013,4.671862860984254,9.37019e+06
-78.4646508245105,-135.5278786979951,35.71956787238564,1.0165798e+07
56.47220700476845,159.8256613935829,23.211489578297098,6.9096235e+06
110.59902962889925,60.61598526254887,0.20237622247020523,4.1726228e+06
-27.38302828281718,136.38716774222672,17.460208558711866,1.0287451e+07
20.804543857609133,-169.13106406849045,10.064679513688692,1.1169389e+07
-186.3369351883077,-29.983605756089332,-0.07656913844420798,1.0120252e+07
-105.47910737364656,131.3251059582728,1.305749458806526,1.1421889e+07
157.6515840004891,60.65321696192263,-4.999465536704761,1.0892953e+07
-71.8588564454648,-74.95847926664467,22.04861316694421,1.0923987e+07
129.49415874197894,97.2219917488523,13.182295231291421,8.3863865e+06
143.46357667870774,35.5138405457391,26.109452776901783,1.1817918e+07
31.75454100431017,177.33188231054294,31.09991440669477,1.3159361e+07
-130.06528815275556,-48.80803292986283,25.326337493328438,8.590249e+06
96.31924465579345,151.25714414629664,36.55058910754376,5.620074e+06
32.95114299949691,-117.40914899029625,15.844206288785756,6.01832e+06
-59.49508648913056,-132.68095237230466,25.000221264361617,7.5697615e+06
169.22201323266796,66.25421900361732,32.573057424498245,1.1470611e+07
63.01500494799552,-115.60475621331392,30.284283364307996,1.1053036e+07
157.482052582322,3.405579339198681,19.390609691170212,5.4767145e+06
-154.71585501713793,17.45586956636643,21.548153876160853,1.2664023e+07
114.6678204542929,84.81524636761509,3.3634784230518884,6.6909525e+06
102.59562807836623,32.93503589237366,29.54674221821231,1.4675793e+07
-130.794817707927,10.217792900312759,30.37041666095721,6.3258985e+06
-67.23021932310692,97.90860375153977,2.764215572440928,6.338276e+06
-94.38306693673297,-113.90188617683883,17.211475641480263,7.0300885e+06
-137.6329823622091,111.97369547512874,3.1307107074745613,1.4842428e+07
174.57685041763392,73.30020697422219,44.67017556131449,2.809836e+07
-159.02699994111723,-71.09237467363218,44.31645896448702,6.8163125e+06
-108.48017352320602,-23.837200110146966,33.71548355555974,1.4592168e+07
157.1090568002994,75.02030928761434,41.25317483918593,1.0237346e+07
0.8664325463685429,146.64855142488216,40.791051516258705,8.642914e+06
-166.72586980033176,-59.10866223920678,15.998641162638252,1.692839e+07
-150.0974145305283,-106.0204953654917,-3.753663711842541,2.918119e+07
89.82849615243907,138.14048429516544,35.63942918523165,6.413624e+06
-140.33146963415925,75.11014138562484,7.307586357514941,6.919129e+06
111.31007636352655,-64.44885297573117,32.29559054425195,1.0565966e+07
104.34082788138163,44.16327392156069,23.320724602813687,8.2192375e+06
45.943916812000595,-164.4494063712763,17.814093872233194,4.366007e+06
-141.98398144616675,114.07626551669875,16.594670722812356,1.7173204e+07
-35.68310350690726,-139.79253719561348,-1.6550681097828162,8.003551e+06
-116.5892675090959,140.68278187892906,28.34425343070739,1.421484e+07
-149.46141244153833,-36.73246196667702,34.314610228986716,7.427674e+06
-128.92208094574193,-62.6634592580749,22.66528349707798,8.611005e+06
-30.500070058354368,-107.0510594188427,44.07070078155045,9.99301e+06
147.48621637985082,108.66869039436943,25.612401540422468,1.2125978e+07
-150.79231918291896,25.42445237680283,16.325940462894387,1.4136608e+07
-0.46900775848811804,105.54931876658935,4.841731649885719,1.1084887e+07
172.90122283488938,-0.6857539216589146,11.445776889831684,9.815418e+06
82.52480409009996,113.18596136105634,44.3248025745623,7.4360275e+06
17.9267450463949,182.57991566364296,10.431199073718375,1.5812346e+07
121.7620633185248,-50.86129580592882,27.46701257022419,1.1364172e+07
-58.580670079662575,-116.55777169121882,12.724577421564923,1.1287372e+07
-60.09860732933125,-112.00729520098358,4.600122639632075,5.8254455e+06
87.0164803230665,137.41695988017233,34.337025757923946,7.4631095e+06
-157.16728165268665,-15.55825507524159,27.03075347403857,8.1407985e+06
54.866921328790454,-157.1238025868186,28.466560568567562,1.2625695e+07
-161.96843644971784,-49.81057904533327,-3.044563580681872,1.157687e+07
129.3373189718077,-79.63020264608609,40.08418525462034,8.645317e+06
54.68487115162145,133.03594627396143,10.303454877767388,4.954413e+06
43.18816537472813,-170.75578734724934,4.939103433168245,1.0552267e+07
34.844644673066625,154.83150909176004,43.011711197548905,1.0478341e+07
182.64711374959768,46.89053609996287,-1.4026661921467796,1.6095668e+07
-72.8293412830761,-160.74125806642306,3.9240051148759,1.6353376e+07
-159.43682443293199,58.732900255184575,17.516402389513477,1.5987042e+07
22.9967922443044,-160.9757260965092,8.070013127766643,1.1765728e+07
48.55332402707663,154.82964247688557,21.094105018693842,6.618773e+06
-32.17723276672996,-106.26279260222033,40.34829095843088,1.0114096e+07
-35.476698170345344,-134.42847780042484,7.066497122837879,1.1618138e+07
84.01018059813816,-166.72653425783938,-0.8537748877563008,1.1940577e+07
75.43746258060384,140.49544634491696,46.89683593145832,1.667694e+07
-92.62247202553576,135.8153030788322,10.181518992659237,1.3576304e+07
-103.02377598938715,-50.20550062933222,23.474936614288545,1.0222591e+07
-107.20628230405183,81.44372022246756,28.638927635777566,9.451289e+06
35.3198718265503,-151.25998085696972,11.036080412926012,9.205193e+06
-152.69597445030632,-105.19185032252456,42.77458965704834,1.1804026e+07
131.9158011601188,8.176174233353834,15.566479993794935,2.7424745e+06
115.83821493517605,58.781647012347605,27.97815556529487,1.323773e+07
-78.2742115842757,81.74744321731902,39.6263768662327,6.7101325e+06
84.56104442332526,-87.21035013186152,21.47158152233682,6.199182e+06
-154.227569421173,-62.552273096109445,25.04919450531702,1.0828602e+07
40.0431632896678,-115.55214722225995,29.48941125080119,1.0711059e+07
132.27720532412962,64.1488263610184,39.79063296279755,7.5776245e+06
-52.32025588879191,153.12660068223306,1.1998384188603262,7.1271325e+06
-98.10850042937984,89.50821368492149,7.064894624661452,3.0698932e+06
3.859711635379398,-170.2005110985954,41.66670285606275,1.0695839e+07
-117.18000323212453,49.79596835469863,15.545173146483691,6.756456e+06
33.74444916866457,-184.66996787635247,45.37799627871648,2.5996752e+07
21.01619616334881,139.6543526848127,1.4905719411441474,1.268286e+07
-17.272972422075355,183.4592544455923,7.863529629832425,1.9420484e+07
136.1202246372797,107.04912843057781,23.14023762438556,9.918731e+06
-127.98115711160239,126.25260565245286,45.66002311324204,1.5922225e+07
92.02126037278441,112.29829970082426,32.3671096293548,1.0676691e+07
128.30413312207463,110.67073688924222,3.039793072691241,1.1308517e+07
-125.82603589422962,-83.07248241700758,31.516974965215507,1.2060275e+07
-11.055201386424812,128.45185573509343,-4.894255984107191,1.9506334e+07
-9.095923666610162,107.40273435023776,18.298939500059983,7.1546995e+06
101.52770022861932,38.44543389048121,5.928527628105143,1.0238546e+07
-40.51565344927343,144.26589046129965,3.1550914146794122,1.0474592e+07
77.12790225758164,74.45851003829273,9.597902267378334,6.5747765e+06
107.46219740476783,-6.92572144515799,38.09440256049733,1.4041006e+07
9.430187740749318,-130.7603611304503,29.583649435259737,1.089162e+07
-93.58264999307973,-61.413028384791346,-2.846596743289796,9.558986e+06
-112.52503083503065,92.92248581982636,3.7087899281207437,4.1840085e+06
-148.8537289301863,-86.89887508384669,5.831973089558448,1.2934138e+07
41.5869553422512,-104.0111175746575,13.82869754951233,8.1737375e+06
-6.108026539315944,175.2657838666085,-2.96775000825424,1.6493704e+07
-111.05085036595783,25.398436671180836,31.923460711662504,1.094375e+07
142.38086562545982,91.99191650540268,15.11281302880004,7.005772e+06
168.95669353635276,53.201406569628716,21.314785712702783,7.2751535e+06
-9.124907981333848,-130.7333874763437,46.267478359660075,1.5788794e+07
-111.15371564465892,-64.29122310063562,10.862623800844393,8.2129635e+06
-113.54224150376457,116.32684789114631,4.132828256874605,7.768215e+06
-135.56062249589291,122.66672993119892,8.699423733650093,1.3351374e+07
-89.15244793250099,16.101314930515002,-0.4507214828321265,6.7720825e+06
-100.5844174064098,68.08705812586754,43.18394987288533,7.2012405e+06
-32.57959319482825,-125.13349321531533,-1.8790172080777106,9.367857e+06
23.34505211204339,-154.52845235166495,-0.37669852936897863,8.481891e+06
159.00902109335647,5.22139363254945,37.20629502925743,5.782299e+06
-154.2122400585562,84.85884068082277,9.644820231943083,1.1054905e+07
-34.743556192409784,-102.7342000963264,36.58715576682681,1.2071503e+07
-175.06454462666136,-13.38213186730286,21.473130159242157,1.9621252e+07
-29.409167947690488,112.37549720939428,8.962753364156693,1.0504038e+07
152.3291459394328,94.98939244492391,-3.1137955623761617,1.5133835e+07
135.97095771426217,32.21591092827572,19.691609646563485,4.289459e+06
-29.245158479931774,-142.62147984362898,3.1864337188775513,8.1100005e+06
17.30566297420347,-161.8377561278578,12.670699108767593,9.534196e+06
-36.26815306434247,-170.82818524821337,47.47746747498121,2.7026826e+07
148.87705552616512,45.279229819614926,5.593841519598476,1.3541312e+07
111.32816359776952,-95.85549523228084,0.015870803096194597,4.977663e+06
97.23975925236397,153.84076743161626,27.540191209710947,1.0813702e+07
-6.314332758717711,-132.93548759995275,37.61993219270788,1.0116548e+07
68.28435590419815,-134.79751612732986,26.053877503934753,1.0619016e+07
-116.62841658876326,99.94108212687007,34.181966676766265,1.1759455e+07
79.09374409753838,-51.75599084507755,44.2672594253358,1.2303011e+07
18.436906555550138,-134.25948564801803,18.725060253260622,3.6268115e+06
-6.502687195019519,106.42014123299653,-3.8695630538458654,1.7088558e+07
-135.92909605242085,101.71280792822581,-4.490964003377879,3.7003e+07
19.03325617673036,179.29397936339728,4.721986770018551,1.1176785e+07
-63.53321013233679,109.39038721040475,3.6974162300336966,7.151536e+06
-120.56614186853469,84.34242263444605,30.931819021449833,1.0426085e+07
62.13533916449359,101.24006664921075,37.79744672450706,9.749884e+06
84.39948144909744,138.81910780469116,33.1749566999413,7.9872915e+06
-105.83125846618277,135.39674289403854,15.396357978170503,1.493764e+07
-138.08173777434467,79.85839362017464,36.2112881984623,1.3530654e+07
41.578199969247095,127.00352667494788,5.3792615102224035,7.461071e+06
-33.2081998386609,158.02625584528937,12.790148484639673,1.744804e+07
-176.58797955336266,15.3460862009282,38.21840552249105,1.6455319e+07
-147.10838878899293,1.3528268389949005,14.631927957469332,1.4329838e+07
142.67822130435707,-105.29427507087922,21.30123050285877,8.818152e+06
34.32823891895035,158.3839538948469,-1.502796694600975,1.9428608e+07
40.73487220217325,169.11594173840678,37.07589432191904,1.0946094e+07
141.3534848538651,-93.91424667114725,0.9340875668168788,4.0004982e+06
103.48706483658178,-25.369310369968588,34.68643329484019,1.4535981e+07
-97.96604469122107,33.2769670010847,18.34791324038299,6.1236245e+06
-75.83320379145282,-154.1947077421941,8.28078227765568,1.5212853e+07
134.0243761770435,-91.91820447903768,14.391250743138572,4.924872e+06
-61.74722685019077,-85.29373029641998,41.587772573429035,1.1124517e+07
-37.37179734238185,-155.81352372201937,42.83764101285112,9.646089e+06
48.254140777649525,155.27179747166275,-3.050398930847033,2.5261568e+07
-169.013221109653,-19.97173242223144,10.104058517085459,1.5120597e+07
-91.6336567120243,-92.92581501888661,28.573890033029134,1.2106648e+07
119.96446073467774,50.01755262472863,6.575331872194525,1.093696e+07
168.77575078129843,55.59927577174486,38.25716416338079,9.494545e+06
-154.25434695987988,-46.56525994533362,24.162994404447247,1.1209821e+07
54.2600711857502,123.11836761592907,17.983956815796223,5.053145e+06
23.947261592191126,136.08956778453904,22.02254443041754,6.7598715e+06
128.2264644341592,124.63820338213509,34.25457818078822,1.0192062e+07
70.27010581996495,81.71342701870884,40.090781637085485,1.2720806e+07
122.135480845124,71.0186946617045,24.086767346327488,9.304493e+06
84.55382297405316,102.86246203121692,32.773693223219645,1.1186792e+07
-76.04521086035648,-85.80490097965159,45.14155775092847,9.158275e+06
-0.6229508261519925,150.61234918563633,3.065236921247539,1.2099696e+07
12.926905450898431,-164.56102910955943,38.441204361629666,7.6187675e+06
-99.76800556103447,124.75751001757602,30.390923216920893,1.0702177e+07
-90.95379496865847,-110.91261080932608,30.422268950683442,1.1951846e+07
108.73374352427925,71.53572636006703,44.40464794170939,6.6960085e+06
-35.41932795434573,143.3638934067422,-1.1468045440166026,9.951156e+06
29.14595026446671,175.7892032307281,-0.8586471078643003,1.7911338e+07
148.4561922232271,109.52466931242044,-0.9371164657120394,1.6534554e+07
110.6581154689531,70.07915108431177,32.68067025601627,1.467626e+07
144.2967173906523,59.672371716119756,12.216157318980056,7.9887215e+06
47.629577417740876,-140.10064348127807,1.7057629748561323,9.444615e+06
88.5073128319143,-162.04748354735318,30.94592794249933,1.232738e+07
-153.3903032598338,-56.10929131296544,2.757985988691184,8.990685e+06
-106.17860488907577,-130.8919400568031,44.88261822174697,1.3124925e+07
83.13500136330595,72.56263001629179,8.520806960974861,6.9206015e+06
-158.43920031278293,-33.42381511598472,40.58573857745315,7.783477e+06
5.760052250289732,-184.94828672321174,43.84991108945405,1.9108274e+07
-123.81836503961874,132.4468138541415,5.578411270024595,1.2755302e+07
130.14986964459968,68.26785066577423,-0.3653644071410422,6.435113e+06
-143.62806020883605,-23.794162093766317,-1.4691246514118337,7.74954e+06
-81.18234460076232,156.60949287775992,47.06288851472306,1.5552336e+07
43.767563131344104,170.323311385536,42.571607595035815,1.3812262e+07
1.4396115921847752,-108.58391122359095,45.223575014219826,1.3211311e+07
-66.05335700327709,-172.47926146434463,5.869796922508568,1.9211564e+07
2.9083159572647617,-131.34681539420737,26.484570940066295,8.371872e+06
-96.92066721902938,80.11068249130699,-0.5045318810136667,9.092988e+06
153.94647987868188,25.504271726171794,23.846762658072,9.584586e+06
98.69065381059687,144.61931494904627,-3.943885417107848,3.0957318e+07
-105.5547881085249,-71.10235003377682,3.4514140048755335,6.5659335e+06
-12.470490455033058,183.77952312700023,35.852831762864554,1.8435912e+07
14.416199668987362,-158.27097353646047,41.123089773836426,9.62055e+06
91.28230722025393,-90.23948377560043,14.044681200730526,5.473581e+06
120.62040391742863,-10.47183471542158,2.331592564887716,1.1515958e+07
10.945288982835962,171.23000906056018,17.035460465558327,1.4989339e+07
-132.52056041652156,-131.59593930439777,0.9764164191269705,2.710156e+07
-48.30532060211104,-97.86225246648056,37.06320883008657,1.2507249e+07
7.9521148122151715,-110.18418592252664,23.34944265593982,4.6404575e+06
34.31599175654307,162.92568035433254,-4.907538220134908,3.0396376e+07
-7.174030064629819,180.64600921006974,41.36274350261608,1.8099216e+07
58.11469312662155,-115.92583096886585,34.137273293496335,1.1038525e+07
-104.15037826399929,-105.59753406597814,12.06090111115466,5.910376e+06
148.46349046187044,30.47702345268908,8.951700243108156,1.1437308e+07
57.48038153082888,-106.27833479336157,29.453958561581768,1.0448346e+07
143.2587109256309,81.57575510442797,0.541571806613324,1.0001618e+07
-117.66391253053622,109.32051966981737,11.983258839599259,1.0802732e+07
-128.16561911110364,-130.58266626287752,18.551102137349353,5.133996e+06
-75.85642170057567,-74.52756163702223,12.48306204605949,1.0055349e+07
92.48239326834471,-69.66947007436119,29.04453645479741,1.1107186e+07
-152.28352537651122,1.1583088041473673,26.34766292394459,6.9580925e+06
139.81019540870454,51.470161767923,25.08072650205055,1.0826249e+07
-151.51392903707705,72.18569549438058,11.662322106770201,1.1659728e+07
57.41619912777542,-87.0841754115938,31.72571078483743,1.0904028e+07
-97.89705034404284,146.4865394727857,39.34033643922848,8.0300395e+06
-81.6756988616135,95.02278699097735,35.957178262621646,1.0038701e+07
-68.98507065777619,-164.773088752664,44.88179965676117,1.8010232e+07
-121.90861733129559,-41.51179108413925,17.014656489826265,1.0066099e+07
44.76834915984321,-122.36222405365837,-4.736087363751049,1.9209848e+07
-147.8324598606087,-64.67915438470979,46.64686657084557,5.3568055e+06
20.120962068390412,-171.13916241577542,0.8870964087397253,8.3387505e+06
82.47198343162296,106.08137858544188,1.7808978185175632,4.644951e+06
-59.888741529366264,88.15028995604524,39.83811963454505,6.062722e+06
-187.40430138783367,-8.350080281569916,-3.275307367432713,2.491245e+07
39.58701282797139,176.831287288324,30.902020763491283,1.2283514e+07
-48.08416727926698,171.89639662594834,39.15378783820982,1.3630742e+07
-140.80246457833846,94.48391232846814,17.691265434247132,1.4274805e+07
-129.76081377138664,-57.82699854947983,19.33672487117623,9.305e+06
-122.1004529095267,41.61907894013876,-4.01151573020188,1.8693986e+07
-66.7259129885287,-141.67004270104454,7.525312222875035,1.2333727e+07
130.70082922149004,88.04452039062693,7.131365079062731,1.0698765e+07
106.96204922984924,-113.49075865159928,1.2654771974047176,4.5973015e+06
-109.43949508536232,-63.09981724632152,43.65346141681507,1.0089429e+07
-120.76310021935366,-38.81938554214122,46.44095632593278,7.62448e+06
-44.20077113353932,-153.28624368786362,2.447142578009146,9.446738e+06
-80.89520144722955,119.34331338982355,30.686200139053962,1.0422652e+07
75.61513007067151,132.62689444914935,27.21948430452158,7.990921e+06
-45.02920190742552,-144.77708948536332,46.372431966047806,1.663874e+07
-16.85524963071643,-146.97545499787776,39.82022312531299,7.3249895e+06
107.97267083526975,91.52388804479858,39.91532078734197,8.369726e+06
62.479048417432416,160.79501146096067,46.70654455957698,2.034961e+07
-50.94555963358322,118.76639698185373,36.0841911769513,9.10762e+06
128.28031205375538,85.71073637127574,26.510541090850687,1.1505069e+07
-145.31159303808084,24.11991554783151,15.343121349178245,1.3161772e+07
-84.15270621086361,-133.4590629424043,3.8280254368144773,1.1307747e+07
-15.895357920354513,178.8845434645504,8.65150981949583,1.926853e+07
-88.43007937432907,-115.57233251969193,42.24347386234441,8.186571e+06
134.816351238469,-123.16861476649987,13.535559851916643,6.854885e+06
-22.238930845102573,182.46992801885108,37.54718446857875,1.8100686e+07
-106.61915633189798,-107.5751843956236,47.12053776537567,1.1705953e+07
-136.2012649173518,11.933785351155194,16.272798186420864,1.1710613e+07
130.66337071477506,-72.48811131647162,10.335662197693805,4.0296188e+06
-11.268383004396469,167.5286484286055,11.539125783722334,1.8070302e+07
-135.97077900773417,-65.66247578668239,12.858867462417017,9.7533e+06
9.749750290380064,-113.110139880013,24.4173689484582,5.536576e+06
119.71467953880767,68.13615755811281,8.299062763414385,9.788033e+06
143.5077417393968,-63.59599136315131,22.853812641267474,8.659854e+06
27.76751240218215,120.24153318406576,-0.9457984389862952,1.5193257e+07
82.46215264523033,137.4486474523486,45.50761095197694,1.2566868e+07
117.93765716176046,85.43074465222645,20.77977512242544,5.8084585e+06
125.17754779087551,86.78234373961169,8.191804618412096,9.86982e+06
124.49532171517757,-27.04319652872229,8.024277813636866,9.214055e+06
-53.42903229522787,139.23377580888803,31.082436847074767,1.0130485e+07
56.88837894653227,-103.52917662668024,44.507179184484286,1.1432739e+07
82.635890516676,-103.93917205814115,27.582348261797723,1.0011247e+07
-68.34934894385074,91.08538816990676,43.403275261344056,7.271863e+06
152.57406317303082,9.921624729595322,12.748293852054182,6.4315425e+06
46.26377803145593,-141.92029639903666,2.1812174980520407,9.556824e+06
128.51929937770097,52.90314752872979,20.207623875086355,4.5719815e+06
-104.47477655687929,-140.2565492784169,44.26994312824749,1.4441762e+07
-6.740285400561562,-175.45983125222256,5.172674330019885,1.3903135e+07
116.0624223692846,56.861213702502035,46.23599702778639,6.591439e+06
-133.18095116674732,83.97069642817769,39.053333935534695,1.3008788e+07
130.32448006801587,71.70509436498799,12.864204408301049,7.1173815e+06
78.43348292023785,-93.3284674151936,9.753541569821289,8.492936e+06
-113.45028967165777,-38.67447487729771,18.35255165555667,9.555484e+06
56.67349178887122,-103.0836412979689,15.244520527764479,5.787201e+06
-143.05009747048913,13.87007487592348,45.15903141129813,1.0861766e+07
-75.95964792282577,-80.36572498100108,37.484231043880314,1.4552702e+07
46.21996852961772,-106.50673453599867,5.344901257902225,1.0371928e+07
-124.16885351286378,-130.49868386585337,3.4917986161655357,2.0248842e+07
-58.3101946910202,-155.5465881524014,6.5395434556282055,1.4562752e+07
-48.695502934066894,108.20032380181385,16.324144295073516,6.515884e+06
108.40138150084806,-70.6085962055225,25.748422968542094,1.029937e+07
94.13983095693948,-73.54349971229585,36.48472905114311,9.573452e+06
-39.536468890234204,162.3165891699844,41.22016775829796,1.1402061e+07
17.30982055847491,-113.66828336884582,28.2407808197073,9.290687e+06
-105.16144518451149,139.6282912414943,37.804509517101124,1.0016498e+07
93.17280472064124,156.25220085660214,22.997241853607022,1.0271554e+07
-87.51854387211466,67.79832927809719,11.643475774210902,3.3123325e+06
94.06335903979834,159.263677866423,0.7419615555764785,1.9861814e+07
55.112685457489704,131.62810631256042,13.46424765758763,5.4144385e+06
-126.51095660574532,36.70711574271354,23.645340481155724,4.139009e+06
137.95914448826164,14.441267064850962,27.78769806881018,1.2954214e+07
-33.42264949482211,154.27590261971926,43.899167561547785,1.1881402e+07
78.7886757701749,-49.120693131703774,7.96790671955553,1.0452169e+07
147.46382991007846,-51.38641557959945,29.12038837015672,7.849543e+06
137.90166063133051,102.38480349018903,9.71758479977294,1.198704e+07
12.264393621543718,-142.5154272097476,1.713718177113545,8.3803045e+06
-105.85682949084809,128.93237786260613,-1.3428624653711279,1.747503e+07
48.223450388113946,-102.48021824580337,24.296797168184597,5.488768e+06
-60.78691032667916,157.60660798829713,41.264769438467226,8.566338e+06
-56.777494946309616,148.25746555900184,42.24696679901113,7.1525415e+06
160.82843499497096,-51.17264980109337,8.141556152397332,7.3134845e+06
119.6466341131478,4.984918360200425,5.636579025705726,1.1847801e+07
154.48520223172136,74.17935154895434,4.519709882280359,1.3726781e+07
101.01339294702194,-38.83608178478579,2.5307331235537935,1.0241703e+07
47.01167389057633,159.48190929653572,4.40826775173762,7.6099605e+06
-72.25303711458326,119.69864241954673,32.62224414552486,1.0623951e+07
67.79221365947325,-104.61235173147884,44.50068141826665,1.0894787e+07
-99.79571163898684,53.111151953685976,41.01822259911302,8.05329e+06
151.90908108347207,-91.38303690544589,41.55680900837061,2.6942094e+07
165.30228333988174,-84.42635899890716,46.93688976566817,5.32877e+07
-134.55058749610424,-78.93265424918327,11.186828378494983,8.133776e+06
17.670127916118844,103.88636887518258,20.065531872059267,6.6404435e+06
-7.797486889981685,-175.5577797255937,7.226535953096268,1.5103037e+07
-22.941611902515348,-169.76410887155856,31.50373972909772,8.742202e+06
124.76717734389496,14.510414709730895,17.297516231588368,2.4316955e+06
-128.090109631335,55.29010620324022,20.828737566234906,6.473198e+06
-93.03775013757077,107.54964214430657,45.64714666321282,1.025639e+07
-15.180210012507189,192.12015580675103,-0.6392586924514514,9.357777e+06
14.389280210442962,96.5582835837904,42.482175580120725,1.1621926e+07
25.92313145847146,117.30651740926959,-0.026081900043328495,1.3691201e+07
-109.56069921244334,-93.91499836331133,38.54963849699881,1.2697626e+07
-170.69386617396987,-8.802466548728745,25.346953752071734,1.4695592e+07
-20.17437685627783,-165.1726376401623,0.2113949168207693,5.880958e+06
20.05377149907659,103.94058652940765,18.270840339224605,6.503794e+06
-85.01931530030701,-59.145803265534,37.57180084008106,1.5760115e+07
106.68840678962262,-3.653230829334888,2.423890407095174,1.1049066e+07
36.937915608558626,-110.61618091774226,1.6475677935059105,9.345892e+06
-66.10223530574845,86.0528900973485,43.75154554437306,8.537108e+06
-80.55583727094206,121.93005237921193,1.1139909583207743,5.850473e+06
-79.91893283178922,76.3485664134227,10.032036179736817,3.7806532e+06
-21.888000132955284,-171.92697681745605,15.940597994949663,1.1103316e+07
114.89645555120495,-80.0504273656998,37.23355971802834,4.2597195e+06
114.21952913869929,-57.24329805971083,9.890826902809685,6.8385995e+06
-102.01092911080151,-140.12715442031322,27.219352742139698,1.0254593e+07
-45.57418926170044,-95.38201856691981,1.315161758904815,3.7037228e+06
125.2543310329977,31.441978378942135,8.726132930702349,1.0774037e+07
-33.24785159505615,164.96047438814452,9.34167589312023,1.8390642e+07
110.58872671940077,87.3078040450959,14.82324335977575,5.460684e+06
-93.48266120717979,41.4257305910175,46.065778682545336,1.2749104e+07
121.57898925083651,-14.300924409915183,6.246558985969799,1.103123e+07
-80.39119468183529,88.38521206399321,40.192683140190205,5.8533015e+06
-63.07727765905873,125.11024215357509,23.58774043942087,7.338165e+06
-9.930470453688145,133.98261977143397,21.070139710512994,8.029452e+06
-26.326962419480452,-155.29261042639172,32.48171065512961,9.220707e+06
118.78102139014004,-49.50781587848593,45.8045091107952,1.2104519e+07
-55.53742000658178,143.40013963414071,2.6225499829593715,8.493823e+06
-127.3876891032033,-42.89491377461334,38.39414622397654,1.2852114e+07
119.05225387233071,-60.60124582896117,45.6791618636107,1.4154962e+07
159.97520308098865,-60.900102605948454,32.0456875245581,4.1594752e+06
-12.486250424007437,-151.30485366600902,26.963648949574758,8.541157e+06
135.77149980785555,-67.21249414433399,31.360438796414186,7.1888135e+06
-78.61172627412239,-133.73539518912145,8.533870475146449,1.095156e+07
-46.79523807122692,-147.6987821052977,19.88818598621254,7.9367505e+06
2.261342413038875,174.9587184358444,18.450749788346897,1.6299275e+07
-92.92020377889756,-49.807967584258506,-1.9554887119057733,6.992614e+06
58.33290178689027,163.22493185327642,6.617932724412374,4.1691715e+06
128.01949544860156,102.61578137042011,23.627234786557718,9.470579e+06
-141.00321386217848,-44.54026886935148,36.73487580646509,1.0343228e+07
88.2915193542558,142.1921019036729,43.359671841817445,8.345025e+06
-100.48918813986822,118.73601939841814,12.352169874610858,1.1086066e+07
136.51488115967283,-93.08316973653432,44.27194763474989,2.6685722e+07
178.40503818550445,38.457355249696604,25.203884568627068,1.10632e+07
108.69585716649561,-44.20825765573119,8.971400987218209,8.568246e+06
-97.57817091442837,-17.743712854931715,45.95222038018428,1.1674305e+07
-63.27252777116718,171.94410950541277,39.15121155276,1.2574234e+07
-134.14427492787428,-111.19576047525786,38.963878234478415,1.2400509e+07
89.56418877056666,-51.89188330767346,-2.3804329156064754,1.1198084e+07
138.34134491716708,64.2091487394996,42.87831442987528,6.3001835e+06
172.3010119399592,25.649614040432226,5.15129772394636,1.6074335e+07
-106.6005848170279,-133.47443269385653,7.328869015746144,1.2319932e+07
116.05979830161692,123.25823492047414,20.744361535585718,9.382164e+06
-45.710037329769136,134.52139374226732,19.888402190579185,8.579506e+06
9.165775824550025,107.53842589827707,38.12675618317522,7.142078e+06
139.4335640884235,-107.99866962030143,46.614296368635394,4.107428e+07
-40.136314912205336,-176.5067592014505,23.846587894029156,7.0207075e+06
-79.67260047115658,158.19492809749386,23.032640242678074,1.1939376e+07
112.45158539706608,48.20901462508124,7.5433840684902895,1.0362033e+07
106.69106788150316,126.66361039280167,7.211981636913735,8.550411e+06
146.48942799050758,31.100602309618406,1.926813751816819,1.3066658e+07
175.07344657268112,58.48643578930637,10.659464153194213,1.2070248e+07
-14.626813309688913,-133.90232723840523,32.9728590843481,1.1086193e+07
9.213232623367958,-147.68501107375562,16.993497204230184,6.048115e+06
-138.4711538644001,-76.52462473934372,23.226447409934035,8.927833e+06
30.89555205132953,-168.85309146444644,40.199924403306206,9.227208e+06
119.16365218388948,-120.17131262580335,15.558351115725195,6.0896955e+06
33.50963490001831,173.08126707401908,1.280558753932159,1.3224084e+07
89.57607730042355,59.75207785766525,46.476755853007155,1.1271723e+07
-58.71079265668917,76.25293875016592,-2.623613263761303,1.0498694e+07
-107.69692150149628,88.36677615219884,28.076691696109716,9.370022e+06
84.67982682947735,-119.86972229524433,20.644533848980608,6.575466e+06
94.11712224028696,53.749834038638255,20.364770118193178,4.428131e+06
87.26186737751453,-36.8378800155742,44.30434262822285,1.2035468e+07
107.65269904484313,-125.91147537489235,37.99735479950477,7.9219325e+06
-126.96018012252503,-108.46821835856639,17.444974737125417,4.195807e+06
101.93442442516267,-11.580894025165634,32.1154673806738,1.5350274e+07
-162.27296544323266,40.69186075840844,15.917694297608541,1.6345094e+07
-131.84818784105562,-80.93117093134401,23.95201827678837,8.515533e+06
-186.22663297476257,-4.731680053002748,-2.3738618718499693,2.2866862e+07
-144.97645280247576,-2.993531642530826,46.99088060288352,1.0169329e+07
78.61105489835433,100.52308206829451,1.292701848716626,4.9110505e+06
57.925653231850845,160.1137247770792,19.94887761542761,6.6127595e+06
-32.88321104960556,-109.95977791214102,0.22516730684348532,5.3566295e+06
-93.42094970809885,51.16433541822221,22.507607084924658,7.0467245e+06
-133.68393298779884,117.16154733419775,13.667133211962938,1.5060547e+07
-102.38774275376143,148.60178086641184,-0.042307952902639605,1.5362732e+07
-57.80894268837412,100.05093880693295,1.665152807489399,7.91814e+06
104.2983109760371,-39.863877582192686,42.661878850762385,8.0221525e+06
-82.18214762126159,135.0348726518822,40.09851984380383,4.8170145e+06
81.14173071487306,-125.39347050775267,32.05565073095991,1.008902e+07
118.30910047680476,-13.236560504603831,-0.18267053386812168,1.0534234e+07
64.06744780085097,156.0478133832787,-0.24921663174221645,1.8098366e+07
-111.12183938192128,6.433968521931887,24.962554678432998,7.965378e+06
-103.33071302325436,145.42184564425213,34.493063574495274,1.1412951e+07
96.44037069080679,143.1045682660896,38.350389548312464,3.3978385e+06
-165.75728073783114,-51.29195228909808,19.10136189668538,1.6952974e+07
-62.54526382356639,-169.32486666999287,25.19863943792132,7.8833625e+06
-183.05822857028807,-5.097700661256198,21.119917263942853,2.2684534e+07
44.121039631186505,178.17859621706884,15.886265081526918,1.0703083e+07
20.247329586110652,116.52845680315704,-1.0899730866171176,1.5201066e+07
47.581865606755315,-89.24409726748746,16.39518610840213,6.1691065e+06
18.813188010546128,-154.10445924924346,12.9055445880497,9.233963e+06
160.86532477118215,55.857505488225286,37.67552635065995,8.025679e+06
46.346038639047066,-128.95928528696322,4.694723438818131,1.0216238e+07
-85.15207362389332,46.186181736660814,45.00784321565265,1.1354334e+07
112.52964534297757,118.2765796656588,-4.156971160118178,2.3556924e+07
-143.34822767718052,26.239324449986157,3.6155103968385154,8.7876e+06
138.23414388393752,-8.605048689058037,-1.7952862379943797,1.0882744e+07
-131.72063567630056,-5.222931726353806,0.34902079886161863,7.6592375e+06
175.19240030428165,-53.30878293519069,17.782637392571672,7.0477425e+06
145.431810196122,-68.03913353770417,32.50170615941654,4.5920775e+06
128.07355243546186,77.44783591105931,4.119941595258389,9.715002e+06
-38.45564146883072,150.712978065112,-0.21087924278184175,8.29728e+06
-62.28259571812234,137.9555950247244,42.392699420802195,5.1756465e+06
-2.3168392493493,-186.35792675924102,46.288315197600205,2.7643268e+07
-81.13761473091236,105.40292003844979,16.053994725964305,6.383162e+06
-86.78956680380918,-115.66152059061712,38.6196920888791,1.0673915e+07
19.824083771163487,-105.07095342543859,38.47031874425761,1.1871322e+07
-115.28381156671456,78.37695726059246,28.799700703212537,9.006726e+06
-81.99792111368293,148.9295604281926,34.50815155983511,9.727427e+06
93.74956545675883,130.52028192211276,36.58571397142803,6.2823455e+06
95.32916693231982,66.06149163434361,27.70408308048853,1.1878857e+07
-135.9207029335541,72.29449068190723,23.16355834357629,9.342396e+06
-96.81694263204585,-134.55563538123707,22.93264158065775,7.345183e+06
165.91299223231204,-7.9481886069376335,-1.255324290597377,1.4363504e+07
67.39072268857547,102.9922716016307,22.535894862506233,5.7368225e+06
109.14339684214195,-33.523540528202204,11.347209531633506,7.470067e+06
-11.11170495764489,129.4378709386778,13.787797033266639,1.0926114e+07
53.897663351103866,-110.22504967305768,25.014203595644574,7.2657925e+06
66.95529278064527,92.83162075230297,4.323942241740015,3.8319018e+06
-45.549008959457154,107.61335107133078,27.29607244462988,1.0600503e+07
59.25860870603935,-135.16325851775292,11.795112126212018,6.924677e+06
133.78325384236882,26.07939051157859,1.130641476274814,1.1360099e+07
117.62267655450984,48.5645530944646,26.103933428746522,1.1858613e+07
167.69647583049556,22.376279234119067,19.32601678927456,6.2231775e+06
78.8165241529905,99.0190946170469,26.61812809796017,8.79798e+06
124.5803636258044,-53.20405316917402,23.33102754685441,9.63157e+06
-108.57118653706145,41.87922372992588,32.90304259715641,1.1004224e+07
146.0718556186327,62.103040657302586,3.052287463265917,1.2319602e+07
-3.3567681183745033,-132.785189233557,10.690750609379968,1.2399834e+07
-91.425074064938,-157.64756775835838,40.660577338749604,1.2964957e+07
-8.312643097786491,-149.13487704351206,47.06023656597213,2.1067724e+07
58.28474301920301,-100.66183121835816,27.540793161379675,9.022062e+06
-35.31057512044927,-104.91101680709085,14.041427637986999,1.178235e+07
-115.63458609836438,-84.37962237471427,-4.36895004887848,1.7816558e+07
103.5021417929201,-130.30212296081754,30.27282812635835,9.730385e+06
36.44461232032006,-148.89329190525785,11.473702183250218,8.80171e+06
-159.7529324555946,-38.269077473707455,19.080065357459127,1.5863777e+07
57.89890115252877,-147.44358920901206,10.476838332984823,7.6337405e+06
23.78329377220726,-111.70993991659799,23.610122074678767,4.4252525e+06
73.1006412745445,111.17393210682714,21.940174113131786,5.6570795e+06
65.94483961195817,-70.52783544991536,42.35662785380444,1.2076524e+07
-133.67473982664913,-64.41773824257791,21.7258197262419,8.914146e+06
40.96964793965324,99.73785226738693,7.429725120579098,6.8171255e+06
-106.09256786049154,142.1058565706055,39.57537065718583,9.192462e+06
-135.58071889276553,-108.88597908601487,1.2781255942981689,2.0625626e+07
67.94429942452985,105.204385789049,17.879264291648,4.509038e+06
-99.0960118890003,38.18893843850631,40.74906022649649,9.33793e+06
22.818659363416884,166.2888958504704,21.322086801443135,1.0732061e+07
51.98213254265417,-145.73863572986792,42.87412564151108,1.2121139e+07
115.82334963639697,-123.48642483307968,31.791028266199522,7.98405e+06
83.5119855441543,116.45023870186417,29.01507236569349,9.548128e+06
-174.57631453652138,28.37519559967089,32.616353978515846,1.5227483e+07
182.64562301774066,6.606773821952685,-0.05613729876139311,1.7894312e+07
-102.15307377639621,-94.96521750874206,43.89897735511528,8.3504105e+06
117.75370619052387,28.671122678295628,13.086016510958707,6.490845e+06
47.16312169118683,152.74580506938742,47.23115621177399,1.9227542e+07
57.02273927641045,120.13338051881517,32.46930605798468,8.287343e+06
-92.75250889379069,-91.18416500679913,31.686924059659106,1.3760272e+07
-151.05208110335408,-89.4265801799071,0.5235246749172608,1.870225e+07
-142.07545833306753,-45.30166393606021,-3.3561949203193824,9.229601e+06
60.21124592039325,113.91559036645668,15.251672978846887,4.881657e+06
-34.272004146974666,-155.5388549719758,7.650616157165843,1.4464798e+07
90.83358107049764,-17.871083130914712,44.39554123285097,1.261237e+07
-11.308506486036862,-163.10825539478785,20.594429076722633,5.6260025e+06
174.82942913773462,4.382482624505087,10.342980346536523,1.1461119e+07
34.24793089698434,-99.25421184117549,40.52844809920904,1.1661547e+07
19.639657373756222,-134.57500224482146,8.355370111673514,1.1787504e+07
-51.30595052202332,169.5638655402355,32.703900593412435,1.3294694e+07
156.47075690157192,-94.70719315586535,45.96994295707784,4.608514e+07
134.06456207440772,84.79489119155102,-2.573715161345564,9.688527e+06
110.78004305517265,-9.362834702628476,-3.9168525745854392,1.0357876e+07
159.02931418475794,17.800307511824656,37.70834999671541,6.2541825e+06
-86.42634766582229,134.46911953284115,17.505909165218686,1.1831006e+07
91.26866988929322,110.47556694144338,17.174588778263402,5.2364045e+06
84.7597840284368,93.56454002647826,-0.7832779434267303,7.137252e+06
-133.81723606451988,72.54666026965981,28.0392274947519,8.993518e+06
98.06407379470687,-61.14579533646176,28.562447241800463,1.1446119e+07
137.33463548114526,-80.87139744331569,-3.062446706096014,7.6380615e+06
157.07171177436635,80.83684456175814,37.04402173805865,8.651025e+06
36.56832046921562,-128.61313522227118,3.999653361483938,1.0202059e+07
-133.67434082246098,-104.94396165255665,34.942120082668254,1.2879163e+07
-117.53722540030162,-78.84421549960834,2.699690184472552,8.937115e+06
-38.3710418062623,-133.71800248404224,25.346542836718065,7.3002755e+06
-27.17520208992937,-109.84263576542111,28.281146480296073,9.793717e+06
-166.10915236808552,62.06677933342684,37.66131731784089,2.041003e+07
-114.28796548651738,23.041216932359674,14.481485265104237,8.723512e+06
-90.46600532822961,80.3399570322868,41.70865206456812,5.6879745e+06
38.31090585799677,114.31563638247144,32.68948418733202,8.06041e+06
-104.00017599369309,-10.776309827639182,23.041433465654116,9.369857e+06
43.33122455858884,-141.90827426585733,-2.3476255143405855,1.2458995e+07
-111.88471840779339,-144.1384555322996,14.129216655862422,9.200003e+06
146.65765638334898,40.37544828500481,8.238415029794785,1.2075804e+07
56.54290793978163,-73.44550008223271,-1.6926557503123838,1.176245e+07
-171.82351991313394,-48.01707128217677,4.2550921097659,9.340515e+06
180.5687838751503,-47.57673748269943,0.07789536228970993,1.5073397e+07
-91.33385365702806,-91.43043856497295,22.26298158582629,8.965857e+06
121.43075946674129,134.08892746884004,14.75914226255112,1.2961996e+07
-175.67675397108516,21.970346631581748,37.689709170496485,1.6891424e+07
-44.58151365684091,-141.32307292161914,6.096272716583294,1.1429669e+07
-115.98317734714603,108.5035319323265,45.94813303765698,1.2865391e+07
-2.578948667238876,-113.82055233648835,5.974313904162317,1.055691e+07
-7.728614036488722,189.05947493849487,-3.5690136949357334,1.7794128e+07
116.23545135074245,-75.31049149333917,5.441768400620504,6.72222e+06
-26.710011531757825,186.53078005109631,41.863764486558566,2.012589e+07
-164.62511754158953,55.37524328688795,5.112586410752218,1.1573847e+07
180.8654497599548,-15.185202093079,33.20953427501002,8.640743e+06
-86.2815225188367,86.40584314102398,-0.10704379144100744,7.411224e+06
-62.89397915423541,-106.20565097054588,13.600391962071956,1.0791252e+07
-198.3992242962349,13.770967599956721,-3.1541957451693987,3.6000104e+07
-52.86490314150664,157.29039541783527,8.881810549057239,1.7050188e+07
-163.396429720789,38.28459592962682,46.08921276986378,2.0255952e+07
126.43654689970305,90.82264748350781,-4.893626010868815,1.6742077e+07
-59.408351257100435,-146.72810881612128,4.869488144402976,1.1673858e+07
-127.47605178971128,76.20842439260122,37.00187213579323,1.1346555e+07
-26.407988790950125,118.30684295325693,-0.1440199295527564,1.1995027e+07
144.4356166270494,39.51700439070612,27.568045219071255,1.2743581e+07
50.64343245931312,-131.27729133053316,8.255703440980371,9.973614e+06
-54.23462657159126,-119.90325348703364,41.280600168214,7.4581675e+06
-80.13252161638529,-156.88795544699764,32.91745100623434,1.0765079e+07
-5.822279932642516,124.14690781433507,39.36484958854781,6.7243745e+06
120.51620988864026,-10.294723733125267,-0.5712222509296205,1.0438851e+07
-111.98617284683058,17.089274361531437,32.1401649165792,1.1304886e+07
-21.337553488393183,112.40154017273352,-3.6709124619812914,1.5727806e+07
68.5312992097933,146.8033861300231,5.914485616794666,3.161614e+06
161.20966902283152,41.829487651434675,39.59449444056638,8.127812e+06
12.542423082579745,-163.94033061298433,39.13965838571707,7.7741395e+06
-29.932258774832913,145.00930358390616,33.26541437769983,1.0759684e+07
69.42722499762988,159.42985335889375,37.041064642934856,6.3104735e+06
85.57665818764451,-126.20648753877947,21.594855849110054,7.8176855e+06
-78.06877325388291,107.34159307587873,31.82420887822593,1.1217976e+07
7.784403397008646,-120.37400344206048,26.84299171374841,8.3081135e+06
165.44397768014926,-62.91177276721703,21.066821991453246,6.936434e+06
3.36805194041645,-151.21048443693957,40.012804607550564,8.429562e+06
18.977692542751385,-123.30196355473437,27.937839485730713,9.659253e+06
-36.245748760118175,149.43919805894137,34.7797098708835,1.0853048e+07
-134.3518400932464,-103.88499157603937,29.4745217912068,1.1543928e+07
-7.714628552765788,181.8065646770275,43.13471386250145,1.9686672e+07
-102.78778031455147,-21.775140145024608,43.68880228715656,1.1629838e+07
-163.82627098852788,-26.38426973123842,33.252924413502356,5.36139e+06
-80.71184738962738,-86.16850249223509,34.33055796788206,1.4799626e+07
-112.27133025952547,71.72124791701168,1.6925776062801214,6.940628e+06
-88.54051286938773,82.56843705098271,28.115970790893364,1.0673332e+07
48.153031877574705,82.58650405911067,6.611690600481022,6.3197525e+06
-155.5550058253909,81.69062092987087,11.690235624394841,1.2745226e+07
-115.30038121128942,105.1398837896487,30.827306660323146,1.1576565e+07
-23.88676128757635,182.48424126738922,-2.351597354767986,1.053971e+07
-17.08610231725558,93.7762513307137,46.002607786980676,1.7942488e+07
108.4020004493073,90.03618213437397,2.2624522625134342,4.644708e+06
68.9032235617151,-93.7491606580347,5.464415990074834,9.593527e+06
-7.164177411684193,-105.18298570287871,24.66050669142018,6.4805305e+06
-31.41814361300243,115.77942745488463,46.58202660966426,1.7007046e+07
146.56882308209998,57.66161940630525,-0.9771528015872496,9.107355e+06
-37.80444085047904,-141.9411785405078,24.919618351513336,6.770665e+06
103.38906088304105,57.56544748466473,40.72691804862458,1.2189228e+07
-27.543141245899903,122.4377061860647,10.506878072612617,1.143109e+07
-17.217346436375436,131.14059124522907,32.2576591764279,1.005614e+07
-66.58009937382533,145.76579574260398,16.931596259731176,1.3370299e+07
113.62506519382458,-19.528932098992016,18.776195299702206,5.102157e+06
85.36665584991351,-142.6241888256774,-2.6035858635989544,1.1534831e+07
-180.094396317648,17.92697294799072,33.25448290859569,1.629505e+07
-116.75811936965133,-99.22917942826905,29.616539743510472,1.1632282e+07
-84.85311989963473,-60.5958296990793,41.8112344364672,1.3013359e+07
-104.58795430809981,9.859769928232652,4.040415727561924,8.420812e+06
-174.8458126708245,64.89335416563245,-2.5956628122595173,3.930552e+07
-166.01022632170896,-58.06342695690761,12.53403922109512,1.5717999e+07
-118.34243719822983,-80.90484255404147,10.462193677281668,6.593527e+06
57.67567255385597,-175.6296193280765,36.711695092826076,8.574257e+06
-154.25259820932837,29.874973093306068,34.860041431781,9.042378e+06
148.73931737049315,56.24810354625862,21.423439498122136,6.3162545e+06
-181.82397490203607,-10.278887451451709,16.18111490914211,2.2235114e+07
-97.0594527497918,-37.50327711107633,35.60174138521713,1.6115651e+07
-86.17257109388703,-147.26680543765775,21.271451900446767,7.7167275e+06
91.87698820262511,40.40236619566372,18.886647948084807,3.562029e+06
-165.85241947966438,33.30499689683407,4.225288055142181,1.1200167e+07
92.22547715484285,76.33824808577862,4.878877194094238,5.6679715e+06
10.885217176276285,153.54774013217667,23.778240006653512,9.068297e+06
-129.77883015790172,48.540718274672486,10.390666307786066,8.503861e+06
-167.04956973558097,-9.099836112130788,2.0632339992654094,8.31766e+06
-103.60662015944757,-44.39518154582092,38.55058468090064,1.5307006e+07
-55.032662571785664,-88.88549574758504,38.61657931476546,1.2653413e+07
65.88512938006386,-154.13743813655225,37.87540204384533,7.8369605e+06
-89.66647027175566,-149.85930662352632,4.7510219736095545,1.6029428e+07
-32.853790133022244,178.53382683053394,22.579279813202838,1.7043308e+07
23.883664603718955,-164.84537454194054,0.4507508897717149,8.3091775e+06
0.039622139984174964,159.2535895572267,40.83026065975177,1.1320285e+07
-34.44696307638657,97.03017342776491,14.328171456037651,6.5820345e+06
21.443883880589766,137.99616606478463,39.63756408913971,6.514374e+06
41.497897658755136,-136.8088712142508,40.690354335076975,9.236439e+06
-118.8768071403246,99.05533301317433,10.640866027584497,8.463222e+06
-140.43478284089534,-90.88484879235597,35.1571971031988,1.1763512e+07
84.03034398630018,83.55170974788149,10.349265689690915,6.1573745e+06
22.23894133960971,-159.98063221012558,32.26509933139885,1.1524572e+07
73.75451096421182,-154.77902722286032,-0.07744281982753869,1.0031895e+07
-35.48918129015527,-120.95982874659224,6.254793843308413,9.704999e+06
75.10198092477157,-76.48677085792683,16.55432632734634,5.5163175e+06
34.22850179108298,94.28916082842903,22.727401048362243,6.470719e+06
73.88236490678844,-132.93461261245795,18.422769587759472,4.5082625e+06
-83.71720512071548,124.4416303133628,-3.092308620320887,1.5302009e+07
-37.73174643114797,-168.68596137659466,12.391754302908335,1.5633226e+07
-109.08688472051043,-114.13164158481703,28.012076451063226,1.0615211e+07
58.072225566987136,-91.42750166041864,20.173150753621904,2.8709622e+06
-86.90869337500624,-102.91006318847779,2.099938668247609,7.591149e+06
90.1325753790116,74.52798692820039,37.809159527455826,1.3688854e+07
-55.70972981286758,-140.17222861970214,-4.583697763243585,1.9027892e+07
-27.67241914799098,109.30487003420545,34.44205777130769,9.620088e+06
-98.83831936720951,-114.43903009420593,39.85025308713867,1.044182e+07
-9.326605656159387,128.90530141521765,16.52789258973894,9.371247e+06
-82.00424180518553,-70.75661606081556,46.532325995664884,1.0308975e+07
-87.18766474481829,-125.34857969551148,14.908577476710814,8.633734e+06
-176.2919663163126,52.86637942881609,-2.1778353595169397,3.529021e+07
169.65256619477992,-57.27907777575757,3.539261550292718,1.0829299e+07
24.850641322944,100.39496544351636,16.35326859122857,6.4755855e+06
-43.55419762151146,151.86733438073992,41.36692576762388,8.704923e+06
-151.10226263227204,-21.90211070879755,13.104073067244446,1.4787575e+07
13.86326832358452,-175.2335744475787,8.64624064288421,1.2732473e+07
49.31899523468536,-145.19952375423898,30.43902582097448,1.2184135e+07
11.386798360005145,185.9509871035812,-3.064913087501337,2.106332e+07
-90.17436294934949,-84.41604564186282,7.954455775344675,6.4157445e+06
155.2172005485421,-11.636667326544227,8.449943053711932,1.0068425e+07
131.15357720278809,123.56458075720877,5.890152936518797,1.4631149e+07
3.7829133015767122,-153.16030677992623,-0.9779765967002273,6.89541e+06
122.54295339974448,135.64264583901945,15.930830487750665,1.3248086e+07
102.76783807992132,107.2030338608538,37.5683232829489,8.693785e+06
57.268586882387694,151.06070724428844,24.153300128897207,6.5106095e+06
22.59899644511134,159.30715019835134,-0.6722082102999346,1.6296159e+07
74.12597939734661,145.93238372119026,31.9162782107595,7.893145e+06
-68.35930208827023,-84.53956420613977,40.18938349802076,1.2376452e+07
171.03202734171157,40.35185743686037,18.52117041511469,5.770403e+06
50.58950836196664,116.29142413766114,7.34532248613863,5.4593025e+06
91.50210942807922,40.461556117386976,23.058454855240704,7.2360665e+06
121.60491920846688,1.2855815344913992,44.79487579209209,3.7585948e+06
-10.38461107629044,178.12295744813633,26.057204206926414,1.528103e+07
22.03874566456156,115.6553707375625,14.930717694992044,7.462687e+06
-8.06015187696633,-110.38961973848176,44.04126426064442,1.1458407e+07
-155.5183128245828,51.857937939111544,18.923251603794213,1.4627911e+07
3.308410046393959,-132.0998874531992,43.202268233167324,1.1122281e+07
19.545197811760858,110.4676314402559,0.32834427345528266,1.3144861e+07
-166.94340126839276,52.51563074082575,-2.7457748285608243,3.3552492e+07
6.38007452767107,169.67928349404383,-4.8925431088254925,2.4927268e+07
-35.445905915019296,-112.9197331202572,4.706354774287544,7.3129525e+06
-7.973292192144355,-149.90750578890965,40.511588176760924,7.997238e+06
-150.31628988806958,-12.739532785303622,29.118002110106914,4.62743e+06
114.93538229653433,89.0369852371328,39.06180876157949,8.916187e+06
-94.19783627249294,137.2902496733571,-4.835442010597615,2.545554e+07
-151.03372003580833,112.65946403934441,-2.280075870907673,3.73922e+07
-4.337891864390343,-158.06211073244344,30.61345648758717,1.0497055e+07
83.75346848392513,-170.47610622659985,43.81709425676258,2.539394e+07
2.496779363976259,-180.75716527383958,2.519193692144229,1.0837507e+07
-108.00997951508577,-82.10282657078038,30.95624811933353,1.3221551e+07
-84.58134163676063,160.91708539625478,33.78137419096616,1.0896332e+07
-40.90308127690315,-106.53625699963358,25.917483587004288,9.171002e+06
65.13009820555925,162.39806504082674,11.654241958673285,4.992727e+06
95.4134421186501,48.97354469377166,37.70046071504016,1.5832659e+07
-96.38804148349287,-109.80341662281674,15.109621942254066,6.958321e+06
52.01412205731861,-152.00225737997494,41.36575044829194,1.0230693e+07
142.8781513179818,-37.27421807774428,13.688928340692005,3.2182522e+06
68.32620688909941,-100.54937615329486,47.44439779032675,1.6541179e+07
-75.43811713343187,-106.36534218987164,9.374750934690487,8.488327e+06
92.58901254898848,95.70723236984207,39.597154930163,9.363371e+06
-120.20690887215832,-134.37293031371817,6.0100266041576305,1.6503655e+07
-161.7862700883427,37.88462847465098,-1.7754604741352888,2.4934024e+07
141.15258712555868,-65.14432865546297,41.39840445316786,1.3758439e+07
53.216683410194776,-99.82033345031356,37.71079591380986,1.1009931e+07
-43.434957065522184,-129.02059498615515,39.50830329410449,7.665679e+06
-98.84130943754505,-136.6400256597613,19.853073204202047,6.7943745e+06
-121.8194824004538,14.972219013605239,4.756061627845354,8.529352e+06
147.63065199371982,-25.77574156893928,-4.433443366591729,1.1684846e+07
123.49437470093079,-6.525709812030471,30.462182924075872,1.4187134e+07
-155.89085201862105,-98.12543810223518,34.97838820338492,1.218639e+07
-145.7652220049912,-11.20667116581643,38.74652156020312,9.311192e+06
-132.43708064142368,47.89986944441472,20.575109447354603,7.3313145e+06
-45.30801758325168,-173.2742907080746,27.324889899884262,7.728492e+06
-155.47292343645572,-78.3552356180111,30.3950842798065,1.0151614e+07
-72.83241752330669,144.13177090780533,18.81445002759402,1.1874666e+07
-44.7446161058906,-181.55804920189533,42.83186246226238,1.5235945e+07
178.6601200283211,25.181698983699444,10.38804751385245,1.2752026e+07
153.6050948107292,-88.98688886774994,45.05292674384735,3.8905548e+07
-105.4652969982742,-120.27669208058467,27.875879988188863,1.0421406e+07
-162.35447257650787,78.96281020170204,5.9683788664014585,1.2172637e+07
77.41024818014535,-140.86910408561715,-3.2953079395462113,1.3315624e+07
-109.50376959217883,69.45802788229184,-1.5575673107120098,1.3227938e+07
134.21575711459616,71.6420805837754,-3.843995400082618,8.677686e+06
35.32137954677759,171.01969895335242,-2.2273386612829547,2.2614162e+07
95.9707529614845,-28.302097669061425,12.879724046249994,7.536134e+06
-123.26555006590279,-34.62026435545775,15.231389313605765,1.0817426e+07
22.2301511696584,133.02443876489644,33.26245987915729,8.2564955e+06
101.63662803651079,-79.39605472360896,-3.4982204427105215,1.115718e+07
-117.14971622738037,68.141375853542,13.301809026013068,6.6544265e+06
10.880666606170251,167.58814189131073,32.546776443151764,1.2947301e+07
-114.61333620147242,134.63416505289604,43.60884200617707,1.0361908e+07
152.72791382749966,2.772423255098829,30.523692874969235,1.0871279e+07
-144.79982663797938,-1.2119823491305226,16.858487578466825,1.3516438e+07
123.48019461117315,54.567828293793355,39.45142193211094,1.0033081e+07
11.287362038857253,-104.54245634540612,41.098930973336095,1.1552697e+07
-146.5249494846098,14.543183725520379,26.98417752255105,4.3807235e+06
-188.8057859481912,-5.307405235830629,0.2746546486478732,1.5563232e+07
-155.63618177393369,-1.6285900271925868,38.62663389960496,9.03052e+06
88.48570045040361,74.74461729354454,37.834434972686395,1.3711934e+07
-83.86474976938393,-130.46021838316202,37.053986757394206,1.0272521e+07
140.30959446724444,3.166376588099553,12.319165357295326,6.2834005e+06
-37.60580853807963,109.60362858350881,45.405183727735,1.3773776e+07
-107.81491061994619,110.960807796283,7.467509834836313,7.2316445e+06
-159.35639944289056,-57.020212475838385,5.859159510205559,1.061299e+07
-93.57808135266592,-159.15403886018274,26.320894866061,1.0431978e+07
26.13456761148697,-145.55429263502342,11.051168620808397,1.021382e+07
-97.56249568007314,143.43325950709243,29.770972376491265,1.0724511e+07
-135.33537545280535,-88.1187634406678,1.955888471637001,1.4156552e+07
-95.1532428536615,-152.9122454331839,3.2187696996347532,1.909696e+07
-105.04724932294573,-135.4909339388965,35.36114087196829,1.280105e+07
-23.730786270388194,-121.25231497625326,47.078445757266024,1.5793248e+07
15.557981351019551,135.2059718545445,24.055378679622432,7.2277325e+06
-12.552362072014233,-181.28973100975023,0.5281735539540274,8.232904e+06
-149.9077968889865,-61.79396181647613,6.41102897871203,1.0155366e+07
-120.96605905019469,-2.138587910655559,8.990858273199066,1.0795028e+07
-41.64377297357774,118.2179809043135,-1.630019273788716,1.1177528e+07
19.647545007131356,-153.2881424076163,22.50336156563944,6.282159e+06
94.3297130941769,106.34473835257705,18.165713087875055,5.205725e+06
-115.47669441479984,125.14632891816932,33.582121590016236,1.2916293e+07
-113.60275248409768,139.6244320840483,4.149145894678668,1.2444801e+07
-42.530307760175305,158.36524573946133,40.23816165325296,1.0241991e+07
122.06989516475255,104.84286656906862,-1.557877807902118,1.2510077e+07
-62.346102805872135,-131.1938922702931,3.499858570134547,7.830615e+06
-186.21483425360074,-5.094310518543153,-2.5415265852962707,2.3276012e+07
181.07325004201653,49.70500194111747,-1.0635555844159352,1.587913e+07
144.7098047322241,68.26780421205194,35.304613414033085,1.1167256e+07
14.977651681398585,126.24589586305417,22.623571550158413,6.842804e+06
82.2940912048586,-71.95216364343483,36.7333334915761,1.1158903e+07
28.44292162982342,114.0524787870379,26.301341235726316,7.2440305e+06
-92.574420872418,140.45272439033147,20.9599069072369,1.152509e+07
143.34294345871456,-57.178379525570165,18.83600382984066,6.5893025e+06
163.6338680371989,-81.66830914632529,-3.354630797294828,1.0733672e+07
170.20218732576478,-59.2496040555221,47.35172570513363,5.1354904e+07
113.75295048824184,-146.74644956130555,41.51124255394025,2.2733654e+07
-150.0491139502678,95.25537471205962,1.3338990747061548,2.0989812e+07
18.747596305771083,-103.89923224712865,43.623401236496626,1.2311281e+07
-7.124695770519594,172.09556214860282,24.5937410450942,1.3651087e+07
87.44118113437452,-91.97381434248891,26.25675300082725,9.474782e+06
88.03219226860602,79.34231897430294,42.371614911315085,1.0767208e+07
1.6773351132725625,179.78422969551696,20.70951793142275,1.6529123e+07
-0.7788814874720629,-175.12304868631782,30.030647587944372,1.0188169e+07
30.103559425528996,130.04296605361014,23.552822167428328,6.372169e+06
38.27932938812046,-130.41886381527343,28.98064623261553,1.1225154e+07
0.9275549633531738,-121.12228915342449,37.484910287545475,1.1245471e+07
-64.52767348382014,157.06105997820782,3.0438294350910473,9.578518e+06
-68.62527861142027,-74.49854892999409,32.03017403939776,1.47806e+07
-47.734688967117876,104.06581686958064,30.816186226323524,1.1632975e+07
-92.12034869398829,66.37101314283859,0.6069768059298577,6.652541e+06
-71.13937933080078,95.56086635556767,10.564197238628141,5.992726e+06
-123.76780448330548,18.126452004488357,5.943390156139178,8.853525e+06
-94.56479300082825,58.13689870179967,35.74945997235291,1.1170029e+07
-31.969245299723298,-111.55972277849484,-1.767402609828144,9.763313e+06
137.94354243774893,50.306980376734764,18.802676993937766,2.6025102e+06
105.20767641785807,45.50359992477499,14.953812548728497,4.7928135e+06
104.00473220166548,28.60859883760108,10.143169473155416,9.371827e+06
108.45871864472292,138.30594875308202,17.079724957273143,1.0653358e+07
39.592713640688174,-117.14942050036123,18.322784400542975,2.5765202e+06
-99.25636678558946,82.7693989752022,21.16701038809641,5.152768e+06
-144.2146643804851,60.6004839529171,46.39161614237961,1.699331e+07
103.11121568156807,-27.974378734802883,46.48508020923968,9.113021e+06
147.46282355763208,1.1240243190001706,2.643857664695533,1.3373965e+07
-94.04070433453629,127.99623633679914,27.00398725411953,9.42857e+06
-93.36241658477134,-108.85848783705127,24.297420470636467,8.639861e+06
57.57105363832097,109.70506556785175,13.699127765383928,5.121978e+06
51.971610795706056,120.71108037683962,17.658403994917304,5.138962e+06
-55.12048209350624,-142.6303906493781,16.521553980041467,1.0758003e+07
-14.223235077882547,-114.12062009657156,-0.3515593822096757,7.371316e+06
-48.07879556917078,-174.33874314816822,27.77578389087227,7.9862715e+06
113.75206113358142,136.99192027790235,45.281155095187934,1.6966946e+07
91.7244756979091,138.890744565092,46.54308841596052,1.7132238e+07
-122.25767500256906,-80.88871236695682,6.689887144376827,7.444224e+06
-83.85227954081964,-121.44127702116738,23.937533804892052,8.0044885e+06
67.97252249411423,143.7517106854018,37.44225485859252,4.499325e+06
-127.70590046986499,-46.53786404964225,41.89622572177965,1.0721558e+07
64.6870321312378,-87.9230570465177,4.557633405449706,9.69369e+06
-79.02105059019075,-116.56179582877697,2.116195971197097,8.0494125e+06
130.4153912405394,121.87777150669518,24.37769658050595,1.1798466e+07
-148.0219272718298,7.538441306869969,16.020175166271866,1.4196015e+07
-79.20997789003255,-89.0919737193538,16.557883672647492,9.681264e+06
78.7943264861081,-93.71373673295507,30.57946953750824,1.0652731e+07
-23.343411391525137,-165.9854595745283,46.29493154969871,2.1870516e+07
-146.61567616424492,-61.457027799446564,42.888084907722195,6.647101e+06
107.8344899238367,14.827081796532978,46.91677291663417,6.8253345e+06
43.58250950391661,148.42509998184335,-4.993593650500965,2.990204e+07
-136.84591544048047,-61.996805879104585,38.216686573281336,1.1155902e+07
148.91104451785156,-78.52778473306844,22.150469834594862,8.156637e+06
-99.0439763056075,120.29328300829236,11.591355539839853,1.1133657e+07
-111.06693498719848,87.28875035254612,5.2957160622622785,1.9414272e+06
-153.7958599816846,12.467412392341402,-3.579705346456687,2.1450028e+07
-100.5063518408015,-117.27069768755678,7.799096141283844,8.0749915e+06
-121.6107232602431,42.78192439960574,-4.331768888430561,1.9510558e+07
51.3241639357787,168.43685959930826,11.866728757972798,7.3023165e+06
-12.766092169808788,102.00392702555398,-2.8732798250459886,1.5230826e+07
-115.30518039071316,-35.066446995213596,5.799743971820814,8.786563e+06
15.240620674300004,179.07808704056566,36.72657119124452,1.5841595e+07
51.494056506882,113.73691085691075,2.987694919952632,7.3977215e+06
-61.614910779569186,-112.39969636540428,-0.3981407458184593,7.967715e+06
22.010433569769646,104.10420766542046,29.753715323979023,8.2332745e+06
86.39078455155658,-92.84673012916183,3.227880925664398,7.942164e+06
-152.2555254142586,-18.038744678215096,13.951648625010117,1.5250346e+07
113.57447213299547,-20.658136531311925,-4.164885143501985,1.1286471e+07
47.85995052327107,-99.33210884395018,21.97501751904672,2.7727525e+06
131.92978889742471,24.227711807378284,-0.3409632674348278,9.950799e+06
45.31228924178282,100.14556912389179,33.951171624918025,9.063109e+06
149.67333909130048,-48.61241787069454,30.30219491225736,6.909327e+06
176.28571866591392,47.65385298614052,1.3665993172498976,1.6471799e+07
177.65479118265102,16.052950407573917,-1.7171407788542712,1.6156237e+07
-122.60874085604452,-63.07272955215174,2.933138731966844,7.7626365e+06
-132.0112519160185,49.98733421262506,25.869655705406032,4.8281575e+06
175.46041032275696,-46.948153479029344,-1.1266441870371282,1.427325e+07
-82.74832878722434,-107.26203489073471,-4.56164886417756,2.0018264e+07
102.8980098194748,-59.56293248828705,3.7960549864844237,9.056865e+06
-144.15484683915247,104.12962580207159,33.85910206134957,1.8290684e+07
125.70770937840234,10.077301229182638,4.2229473113617955,1.2284521e+07
128.29541901119097,117.37778045613413,20.208861996175056,9.646552e+06
48.26282543865727,-112.42438364034513,-4.280816800965598,1.7834948e+07
-101.39740750665291,-109.0011862790853,20.98747628903423,6.8348815e+06
-8.433488062472435,-170.65225848048007,14.869421066884048,1.0628317e+07
-124.55373564430587,-129.96791439662871,44.19440708323649,1.4751685e+07
109.0540418391043,-140.5086214635249,23.307026037242846,1.1207253e+07
107.76603822150668,-81.85942643470243,20.83157721886867,7.6194285e+06
-17.17212458919937,152.68615749709153,6.139930221053019,1.4069031e+07
-150.01529695598572,-1.3184684297849856,6.019878003269163,9.779777e+06
41.1169389357585,174.1627055857722,13.837332306972186,1.055761e+07
-28.123515413491305,-174.10808803693408,3.1069972420871,1.3015666e+07
-37.375826214558,155.73355819272615,3.097153694084521,1.0890015e+07
63.459020752468916,117.01890919178368,24.50609194596617,6.47429e+06
130.01766564307275,89.3968237545509,26.98165745126028,1.1808422e+07
143.02559071227074,0.84754820166944,19.21149295817257,4.787207e+06
131.17251645606206,-74.88867894991174,8.037325285194752,4.708313e+06
-120.67992851333983,-137.1154580709197,17.05059763795378,5.803091e+06
-121.73182206005548,71.9186242674117,5.7631961014946915,3.636252e+06
57.29751956234594,-100.97345910592725,40.262875259727295,9.844148e+06
-12.471480123987448,-110.93049984752561,39.110496024375436,1.0916406e+07
-168.84461078238274,61.756532344304105,32.472251994618695,1.9273992e+07
-156.50838000883482,-75.45551167505265,38.51094871216686,8.492084e+06
-177.10559395509057,22.754693334163164,37.415953661382886,1.75009e+07
178.94460889721967,-28.54258341617441,2.5941830149938845,1.5303861e+07
-153.70289773553773,-50.37509335491737,42.05453889316295,6.88887e+06
-119.02870936021621,-9.920310409165154,32.46769610009031,1.1783682e+07
166.7720653762713,46.095922277804135,-1.056758683445064,1.3242154e+07
-125.42324984312066,10.429155987645629,0.527093109223021,8.422541e+06
-159.2092516258266,12.3825078566544,-0.1924151603190499,1.463043e+07
144.93898990198716,1.3445897329682452,6.021022990913486,1.2383581e+07
92.35879640706548,-151.25977203354427,35.070426639139754,9.062039e+06
129.06859548475768,-102.78677207702556,18.371280199777647,7.499984e+06
-34.12721903191698,-149.37256102340072,26.771402484863824,7.5800145e+06
130.3880393129612,-17.03283353621933,29.014531823482493,1.2830437e+07
-167.1516919309825,-20.210319499679485,19.67538946749361,1.8007876e+07
110.00825598820126,-151.6266440407353,45.10654852247487,3.3533574e+07
127.82759853386705,-98.57664819043133,30.70055282698041,7.022369e+06
-150.14958781835327,43.528377185418776,31.954845756517017,8.424657e+06
29.778406813617323,-146.2873904782694,18.566391025073578,3.0105068e+06
-93.93616214641938,36.760806165826494,27.656257037642618,1.1131073e+07
180.51592008063494,-56.632097507633496,43.35545735479967,4.3279136e+07
-3.655033262212811,118.75720051599762,37.08113332257775,7.377212e+06
115.65048623542675,41.19130492209919,5.85198810527319,1.1047124e+07
-158.49006028996473,-30.259228234563466,14.364107764111917,1.6199689e+07
-57.551544415969715,-98.86613021114977,18.217134665386116,1.0248523e+07
162.08957586787767,-11.451039208660376,12.698041769242725,6.364373e+06
86.49428760089609,43.93382483470947,45.70010672520077,1.3293993e+07
-137.3588624275269,-123.34016117609421,24.036559929877736,9.759769e+06
55.48059001658356,-111.04679788491265,13.464285717627122,7.0565155e+06
-115.95648402546436,-47.66728689043305,9.335663148034575,9.356519e+06
-154.83510491628053,-31.495081660050406,25.92002516735396,9.438055e+06
-33.85011497230309,-124.23103892415881,34.27278608881236,1.1073883e+07
-43.59364713368049,111.75653706780804,-0.3733226713886064,1.0267917e+07
-165.1957708172638,-28.78952863515559,14.848539170884905,1.7746938e+07
-144.76245267924185,110.05726372874777,1.6091291469829645,2.0700306e+07
-144.15040622986135,36.071939640764526,35.68405842480575,9.142278e+06
-78.88117177069364,139.75814225787695,29.873325888959094,9.443736e+06
113.05599725147573,-136.66562768389997,44.92875174439535,2.9550766e+07
-116.85452258364481,-74.86671766578783,-3.6648534122145673,1.4430768e+07
-85.3352759856048,145.1458775976477,44.74305528686674,8.239321e+06
149.60669369548503,-79.59534436640743,40.23464402626903,1.8691824e+07
-44.595864232431865,101.76081938578697,0.553202711467311,9.977023e+06
-87.19737541148334,-116.56485295086112,18.292866265824753,7.675232e+06
172.22937788946615,54.630507045559796,12.26023221650803,9.763338e+06
37.78772665765047,-105.51267175981728,1.7899071351764608,9.3417e+06
99.56253383089432,-13.961636905403255,41.30240326076408,1.2762582e+07
-130.8874397411622,-39.09615935911947,14.617363275835219,1.1423648e+07
-59.57840970767245,88.00175065830462,6.6223886032648,6.8771225e+06
-7.501902822464274,121.5528090699409,25.164182379278184,8.2787875e+06
-100.43301502937098,146.13060882464265,5.780638743012488,1.2635188e+07
-3.520481242819528,-114.3161357017866,46.81508092015141,1.5739372e+07
136.5131937499006,65.77009456452555,7.251789760931916,1.1578192e+07
121.47073997449678,87.92948812336164,21.34661875121006,6.5174065e+06
-14.426805688596685,-163.43262122450614,8.483982027011683,1.4698989e+07
30.37712456519884,175.29683772378604,4.767596363447531,9.540028e+06
50.66338177414883,-95.68106763229368,-3.7456371395200594,1.6341906e+07
-134.6232655904031,29.936795093151147,23.81827821560334,4.9672985e+06
-127.4952312333951,125.85749679809987,8.716806736469074,1.2989318e+07
93.68368212903431,63.48496953441855,-0.662682671848089,975285.25
-115.55675323279289,98.51093144383753,-2.77891681442529,2.17702e+07
66.95254225747215,104.04580287739311,6.993367368523502,3.6320285e+06
105.71358554055843,48.961027485380185,-4.229451539089136,5.664228e+06
-131.47993591376115,119.53833967123455,29.086734692378148,1.5956102e+07
156.80225826888017,-73.55742772171271,5.174835859371362,6.755957e+06
82.15283891318535,114.2798299191748,34.318995970842685,9.590587e+06
-4.4604405691236195,142.86401188917728,39.512046098049595,8.163347e+06
17.599151969021506,-112.99986532225476,12.494588195654156,1.0544027e+07
-132.36270424685125,48.205427745868036,41.18194863188905,1.049129e+07
79.75002636749383,-80.15226113908973,38.914771163402705,9.618684e+06
97.53849839533228,-63.69032181780222,32.448211267030906,1.1745387e+07
-119.42399658919264,34.965523894644434,43.80919875851297,9.282758e+06
-153.44978266025964,84.9432563242242,-0.04894812271042381,2.502428e+07
84.9694505173187,110.21333507271311,-4.6052666878740744,2.1964978e+07
127.91190151509369,111.6171270820718,39.08227806849065,6.0660205e+06
-24.936266921684904,-118.27418813480261,0.2232577737331867,5.5225405e+06
47.13354911545514,-148.8002160747449,-4.7598045463639975,1.8390496e+07
127.07048063879643,137.95205876425445,-4.241784191812141,3.198028e+07
-96.42741025568196,-105.7729342394586,34.9745369898288,1.3217678e+07
-34.11982719737631,-112.31256464824351,10.521288530506016,1.2034439e+07
-118.1516489420515,120.34075815784819,46.39087978026448,1.4397298e+07
-103.15726752731278,78.85871109224013,5.886031112508061,1.458492e+06
88.24920913723042,79.66936039338151,16.011977088685608,4.3546925e+06
-136.7576211647068,88.46529643042942,35.55433329152161,1.4192988e+07
-136.4664867540609,-75.01620133477181,32.46686870114508,1.113583e+07
-131.57930602284674,-38.50111752330781,18.98886061517061,1.0352051e+07
-84.13060668420212,84.75574536011902,31.412346450359813,1.1922135e+07
103.73158829964713,88.3489850783825,14.501727737346329,5.440179e+06
-27.33885139669451,163.41259963540534,45.3186139640128,1.6446443e+07
-45.65756989643967,110.86824316432518,16.425717877770264,6.8939245e+06
-168.62200691972996,19.341444500470175,45.85095841903177,1.927457e+07
5.4449708366665845,-112.968882437197,12.326837881209798,1.1317718e+07
-42.16463953370385,-129.21640023601134,24.28297639687166,7.177569e+06
3.093272339892195,127.38322210010044,31.255842228417922,9.14427e+06
-135.35182177810253,133.2383872592236,0.7297730455021086,2.3649578e+07
115.48738201917475,144.0052627652745,29.486123695180485,1.2278332e+07
-90.18098687510752,151.43433061535114,44.46861394016232,8.483337e+06
-149.53913593997976,62.658606644462964,-1.9199067946324793,2.6005554e+07
-0.29765053784913675,-199.0110767396356,-2.485518220952505,4.727884e+06
-128.29064367490582,93.72237305633797,7.433510763098414,6.4664015e+06
-32.00751907002376,-144.6139727087146,17.353400284128387,9.433217e+06
-128.29192050480486,-102.17367219899982,14.119376808783503,4.7713645e+06
41.7279242908906,159.3596526796332,3.15092334209641,9.749525e+06
-95.64402799062468,-48.323069968304026,18.99230057882161,1.0096013e+07
58.39296025332107,-73.9855220135114,-1.410902051822876,1.1300372e+07
-164.1328620134917,90.34609602695951,-0.6805430659231234,3.262087e+07
145.12628365920256,5.7769773719399495,42.267764985107355,5.855418e+06
-55.92959099392522,86.25468460228711,44.26660611076836,1.0785697e+07
-106.63620680075856,-22.21944652256954,33.18476831974893,1.454809e+07
-86.08810234980417,79.36216268745272,16.648326738907418,2.7584145e+06
-116.30154783552724,70.26361086549838,17.60630123462969,6.081086e+06
122.08316357498205,119.96359590634138,14.079490774257412,1.0398844e+07
87.56770870941648,-96.39256912434892,9.184635770526608,7.700621e+06
-57.2296089647106,165.43999798866878,27.202930273481027,1.1416412e+07
165.42252585273786,31.936427719691096,25.743860027054094,1.0809185e+07
77.39649503060002,-64.3575632471543,15.968648112406289,6.272652e+06
157.92010805357432,62.71797993312277,47.42280888303519,2.8740816e+07
177.72482062438468,32.121192329430215,13.25993668090737,9.69032e+06
-145.08631522191257,19.12602639314821,32.210240862037466,4.8253865e+06
142.00706500776562,88.02404347346499,7.577095435495878,1.2157316e+07
107.33899272290216,-84.06052994987961,-2.2444393406583236,8.287486e+06
-121.12782084887023,35.15854009416367,16.218681277457943,7.9860485e+06
-87.63909040945235,134.23536891734943,8.184074349485412,1.1959829e+07
44.689023972700596,-150.75001997862756,-1.9718120314992114,1.1598799e+07
106.83324554954623,93.90651054217255,1.4093573415300291,4.5113285e+06
-113.50082627757159,54.84809393405619,11.35136898391655,6.407884e+06
-39.94054551039147,-112.43745575381112,21.730361549756772,8.0337455e+06
-29.441204091925243,-149.3466033809969,23.367403660225172,5.9887945e+06
-100.6702629766135,-41.56448985080027,39.20274628566804,1.5125726e+07
-107.25686237607137,-100.20173622841364,24.645523390194484,8.767896e+06
-108.62561001287098,-133.5819589008819,38.7224329385958,1.2294017e+07
69.63325970956333,73.1054550592333,40.60693660063107,1.4019944e+07
6.003963249205498,-126.93515864216155,36.75824897975067,1.1277591e+07
-123.56540793757071,133.5633548643396,25.863877272362334,1.5435794e+07
-48.84320574447938,-123.63694250566333,10.67065312197245,1.2003309e+07
104.01665428775419,88.66974403433119,32.89247637728533,1.3230627e+07
160.29708528933264,45.68953612222316,15.004702763250261,4.9001705e+06
163.17676276167276,-79.14397050030182,29.77006750387239,4.9624205e+06
-49.8729354379619,-177.5182956316064,42.62317073765982,1.4060308e+07
135.09970303849224,-126.31790994227984,42.336750888523206,2.9694652e+07
-72.23073698938714,149.7064044319983,1.8271191362417878,7.256025e+06
-55.56037536288893,146.92224120544,33.59895744409871,1.0321536e+07
126.33054066285307,-48.48535744448208,43.76539936761664,9.4425e+06
-127.98923849323289,112.60307202079389,28.640417784680892,1.4068046e+07
84.05455768038735,126.22569706151967,7.196184584703465,2.5737512e+06
-126.19270035226005,27.7265334436517,15.235256170199943,9.624589e+06
-60.21218920867267,-88.32189958283125,38.77841594029171,1.2774256e+07
94.34074126747203,68.03179663172483,11.502886354683579,7.0653345e+06
-160.153593641386,40.921403189177624,-2.218600458504614,2.645517e+07
170.49013579639626,8.2359371970567,28.47771345426954,9.710128e+06
21.89695919135187,-110.29612113991693,-3.816730443984984,1.7246588e+07
-74.80094593954729,70.40948620879016,16.236365865954653,3.1262825e+06
-56.68386111964355,-100.74149978424964,28.325528303575027,1.1320831e+07
-150.23886517590643,51.71410149595829,36.78409933435832,1.2710112e+07
116.138242468785,64.45376566522248,44.29888642678498,5.6386395e+06
150.43576624492727,-88.59112563208353,34.20079789462603,8.275294e+06
40.35743197773468,148.0302851430185,-0.04545250924327198,1.5492933e+07
114.2088016266332,138.25205029874792,14.09635079799655,1.2339538e+07
149.68329752734235,88.59117765575564,12.974434177286433,9.025623e+06
52.33916642561201,-103.71844400462349,32.138643219318425,1.1304904e+07
109.46405104917818,-83.14941035524876,-0.321346803969231,6.508247e+06
124.63876726177092,74.6738714525622,39.34665364188674,8.781742e+06
39.52206883810109,-116.82703276858199,22.478591385093324,4.0491952e+06
159.41107160602115,-27.7799455340955,39.61455206314541,1.1425974e+07
116.79463905833296,-96.96364885506985,22.218009574055184,8.842389e+06
150.51828679245176,111.79170964627826,-2.607874017676464,1.9637966e+07
15.125924245156199,107.48062740920659,-3.713990128516431,1.832031e+07
30.8119902455318,-130.9687669374387,22.3194686911139,4.7215815e+06
-92.42803241387354,-46.90736244262047,1.7286925165064058,6.077183e+06
133.47646667540215,116.68921529842379,22.783197212404026,1.0789028e+07
120.73598284683476,-82.53722782226576,3.409081718251394,5.561809e+06
39.18315708192716,-159.06011613980485,1.5356390642345916,9.479481e+06
-62.82346578186858,161.37975099397607,9.914177540124932,1.8492842e+07
-113.62790951133981,-92.82354526917653,18.04456292482763,6.1606035e+06
53.13197034972325,-178.97322411063587,43.41354728369311,2.0131506e+07
-158.27023708818504,65.80747871411904,18.996948572984856,1.6139231e+07
127.00529713843305,123.66219569222301,41.613849031341225,7.792074e+06
-170.4288550967579,48.27490575260924,19.49253868021039,1.9109286e+07
-23.40811450710811,-156.57292222806268,28.83444169601954,8.906086e+06
82.40674512743897,105.82601617082605,16.616716862866596,4.642231e+06
-59.14592432439796,-140.25553957864022,5.080766654728045,1.0499959e+07
111.94756176402285,-55.79309076172535,39.85369767148758,6.004564e+06
102.41990793223283,-13.988433155066247,35.43003682105419,1.537198e+07
136.72917199472397,111.66357385895465,39.25429759290602,6.5509575e+06
-28.26049619171954,-183.1257581917078,47.34080998200889,3.0096652e+07
98.36433117389277,67.53377315388269,4.430763565678312,6.880064e+06
79.16692529506236,-140.12154680173188,42.29312914884837,1.2162864e+07
116.03129099066047,-113.31952717842894,35.44599159261599,5.6323695e+06
-65.85130177635446,107.12736475179072,36.75174991370587,8.842919e+06
133.14142341083328,-8.098639190354618,40.73173879804492,3.9141602e+06
-2.998135271782189,182.0670411446328,20.76651675241527,1.7635602e+07
-133.8073473296614,0.7040325310638309,23.844434569512337,6.337595e+06
-35.21112409775199,-166.54758594565618,45.27970443256955,1.8467614e+07
-147.2587315498299,-33.38919467400302,42.19990763954478,8.222017e+06
-92.62807128144459,-159.67245725041636,25.073888337836504,9.80891e+06
-42.299334968277066,184.7663049825232,-0.579637193416709,5.2545055e+06
156.38890960879326,-46.0827123564591,14.994305166277993,4.2134895e+06
106.95142409041478,-23.61950402903895,19.41103984112787,5.663337e+06
83.21641578033746,-94.98286523377769,39.448638126061155,6.909379e+06
0.5214665428936769,-121.45112004690625,30.77803754003481,1.1123803e+07
135.4683035639327,19.943376759233274,28.709339670883843,1.3630785e+07
-122.24591465664555,4.53787705968881,17.29216256859096,9.538988e+06
-104.91463608667,-54.845876446989685,5.680742200981237,7.3544e+06
111.95591752534688,106.49838404622705,18.8791316124756,6.40835e+06
-44.134317578301506,-121.68326589691492,33.941575409068015,1.1224688e+07
-48.37618412178705,168.64359807416298,9.955842657068281,1.9891648e+07
147.61514779701042,-104.50827484396558,38.34965667681501,1.9248404e+07
99.12786264586475,87.58595752740644,40.821764164616965,9.081312e+06
-68.0352407108185,73.84473397695348,19.50998992449847,6.136542e+06
-108.76967104507935,32.18985116655898,45.367671061738676,1.0416875e+07
94.58856418784052,-37.93703837303036,39.77193471209683,1.2431397e+07
-74.62474228310745,157.9358913954007,40.72853348537532,7.749795e+06
159.78620160246504,-31.74551922765318,14.689863862088444,4.301701e+06
48.2921977236615,-167.84889349264583,1.8313204536950118,9.902719e+06
-61.59765080369141,-85.31106765827712,18.198047563755473,1.0800119e+07
-70.40930309833081,-90.5538882490962,0.17101935108231517,6.6113165e+06
-146.5427913709254,71.79492340052491,0.7842974582589078,1.7967792e+07
43.846409659472585,-79.29325121902586,-2.496954621023564,1.3633819e+07
-176.95209453365646,-12.123528316680819,28.391139583103744,1.405998e+07
-16.593963517245925,140.5833448205118,21.282993888846818,8.773466e+06
9.806634881104173,134.78247530805982,-3.2634771127119984,1.9402888e+07
81.68750678572934,85.00190592767007,28.039625717925308,1.0440545e+07
-76.52727453713611,-155.60358024232158,40.05962838249337,9.243388e+06
158.62674901446826,-100.03520572443477,-3.8153037091221815,9.746344e+06
104.67585615442107,27.262168070499513,5.397423598713115,1.0912884e+07
-78.39838019672776,-128.67510579316885,7.710055689788106,9.913733e+06
34.530918512943686,106.03087264585025,12.321391917069349,6.8571205e+06
42.072764327975165,99.31398097279782,28.601643056622056,7.948001e+06
-74.4294353534098,-136.84560531382073,44.24716402279042,1.0069295e+07
105.3778293659289,-90.5186205460112,13.401601174468533,4.8392975e+06
-145.01416038222064,24.943645230634246,44.33556427410969,1.1928244e+07
-98.36735617943519,79.6403056590438,27.582217253898676,9.520233e+06
-146.20627753373307,-32.33935901151713,29.636970798015497,6.512525e+06
-74.75994116669433,-65.76141073800113,-0.5603117357091147,6.7016395e+06
-133.9929382272877,69.32782149104759,47.04315079134853,1.6311517e+07
-139.3274795685263,-63.20607244835236,13.111397937092665,1.048644e+07
87.14783214630307,-121.52551952567569,5.255142362571099,7.4473535e+06
8.75366962218763,-143.12961520329713,27.981867244134467,1.0213743e+07
158.12331059694554,-82.56110879365583,41.73990600322106,2.8926332e+07
15.577763648060113,154.5865027313012,-0.9714816687938714,1.6152884e+07
179.3335043603949,-29.33663877867997,19.345548109256015,7.5765855e+06
-53.86261394244246,111.8170741939213,16.26805601621709,6.9138565e+06
-98.01193677725055,-97.63800120731956,-4.625612522518451,1.9931472e+07
88.4967423312508,89.75546300918029,11.702101960060176,5.840313e+06
4.348386646312804,101.2110976595752,38.85882354249842,7.4337725e+06
-4.19118077880222,152.7030607901587,47.2723829818271,1.9777314e+07
121.69101968461035,-48.04396296051857,28.374741234918446,1.1648388e+07
-87.14949895079292,-119.55738290919079,28.524834571167258,1.0472326e+07
80.24211905477603,-67.45283633534069,37.66119115062421,1.1621397e+07
-135.62665339960267,-49.30917491249599,38.38483432235925,1.1404017e+07
80.56909243033459,-163.04726790592818,6.945010531025208,8.471651e+06
39.91267442505057,-98.35653394003762,43.93293917891469,1.2237662e+07
16.715488317551944,-152.7868358911726,3.7075879837217034,1.0384909e+07
-152.99137202218986,-30.123677319581613,28.57736428308959,6.7200585e+06
42.696394483199555,145.5151334410914,2.3223862600472516,1.0676541e+07
109.7571788782753,-62.338015176424875,17.054653914359758,5.3839965e+06
47.56879628503481,-177.54721082650255,41.47560937210689,1.3750065e+07
-105.28676664146622,148.32569625152746,45.43242841627334,1.1284112e+07
101.81713565286594,-79.88953752772731,23.304186786841687,8.743594e+06
52.96829416025574,-118.83797490293854,28.834926482608843,1.0716613e+07
166.5286482319853,-9.102788257858037,37.17087317737023,7.9968665e+06
40.72958012213897,-101.32606625137939,6.7087066214453985,1.0855026e+07
-51.42738846101006,148.99039132443318,43.979376125069166,9.742729e+06
-128.3005244557506,-96.29789680941303,-0.936203824920998,1.8426842e+07
75.50706408064013,-96.61839411500006,11.285378123698976,7.862394e+06
-133.8216594655038,126.67032140927505,2.7393868826771244,1.7045048e+07
76.82982142243873,-123.3696989041015,35.02593779129,8.67972e+06
103.18432292776617,-38.715431757323756,25.956292068991576,1.1076281e+07
-113.77226360612784,-69.80560381079633,39.96880085516533,1.3022065e+07
-109.17067352657126,-36.60893341706509,2.119986162086445,6.807226e+06
-117.21637164652678,129.2767596883047,0.33526805101271256,1.7087514e+07
-59.41129134364047,-88.0831307931638,18.522093373600256,1.0670679e+07
-10.606356193482554,-104.30168077382386,19.754671941099538,7.264033e+06
-4.775134908803778,153.7397679617642,-4.055931081040037,1.957524e+07
-107.88440825207445,72.65445714967399,3.80761222253254,3.0446932e+06
0.01354455119434306,91.93476675148594,42.39319721586315,1.1430982e+07
-58.61032321331788,-144.3695707566737,32.809419249378934,9.336405e+06
-57.13817040627259,148.70101742684432,35.97789848582951,9.74518e+06
91.91050624340875,99.40728457772559,36.05836407256681,1.1081423e+07
-39.19453620713446,-162.8398731093518,22.280290681152934,6.4877245e+06
-5.08242802370097,180.11009289341126,8.382439014178196,1.800195e+07
56.03621355734675,-108.51974301618176,22.768489791587136,5.0082995e+06
149.3773244156921,-5.556673991941437,9.924329853807068,8.749218e+06
-1.8658328144935867,137.574576455201,30.81169366185247,9.647984e+06
-93.86390062361549,61.067998992407865,42.731499097084864,7.2142545e+06
136.89228586101427,108.007357470783,20.776020877761507,8.837474e+06
-132.15459585020307,103.93367951430787,46.87567991657733,1.7866336e+07
159.05163129567524,93.8050643432909,-1.773016304618274,1.4405147e+07
157.9398556933076,32.69078251173448,13.056557760904052,7.1353625e+06
128.1070093645779,-66.16620365804548,20.79380335680609,8.1302285e+06
-120.41190644865543,34.574694880343145,11.36725790808973,8.895414e+06
-138.74799724437042,51.991129357077966,3.9706925708486027,8.008429e+06
-36.4362153112495,176.93511864982526,43.9431494007337,1.7639222e+07
108.57235591428808,122.19027940271394,3.6338230268379927,8.689966e+06
172.0692003914629,-26.545177012752674,22.16897187628247,7.3228805e+06
-85.83974749376293,86.12221614838734,31.721673305610448,1.1804776e+07
73.91846435970507,90.32801051640376,31.80258288936688,1.1444061e+07
-95.25320548354648,-110.15807185791107,0.20812792240444963,1.3041078e+07
141.02678922916272,103.00293501810364,7.1091588542347335,1.3317413e+07
-149.49975950762195,97.9659365405322,42.31735133212102,2.0370752e+07
100.53517598975145,-78.52801149191934,12.225079273962983,6.087478e+06
-107.5330324438604,54.490563646577414,2.038032943723164,6.2323925e+06
-111.10918137967838,-79.00306762113107,1.446720301169438,9.12932e+06
-172.10936610839804,-36.31746201642619,34.876653625031174,7.0240555e+06
72.5230716604093,-76.55867387464559,7.412492012051964,1.0030568e+07
50.7969856681317,-138.24779274202598,25.27207962595302,9.676004e+06
110.99613048523928,17.957876240273663,23.689584707604528,9.406636e+06
95.13832081672228,63.73599612215974,-3.4208833395028866,6.1962935e+06
-13.899917426611866,92.1785719057628,43.48081832690366,1.2473824e+07
97.85884869276828,-130.97979819991855,30.277683610498237,1.0036162e+07
-8.372352236182167,137.41404751904918,3.3984177799857207,1.2211575e+07
43.63446598172857,-111.19194646973476,2.7110389345134234,9.543267e+06
-87.72937138731996,-48.65584524761576,6.082349481923022,7.7730375e+06
-165.6355271778413,-62.34560659985453,41.1050125201909,7.1177915e+06
-132.0788002081987,-120.66757693975063,14.04255784839625,5.4643795e+06
-123.13792788432622,-115.67834140922301,-4.673453210635853,2.8631648e+07
-0.9284656232724728,135.4294849973665,22.07491486260558,7.78222e+06
-98.31668898966544,64.95126715196841,1.6020735916164732,5.713504e+06
152.31350357377625,72.29116270574144,-0.25662606883235684,1.0732968e+07
116.47262380888094,-128.17591262134957,17.81984432769,7.7901745e+06
99.49715909141929,-40.49338600992289,41.45513557750044,9.950609e+06
-83.59397434179789,-70.13143607147035,38.49603974219223,1.4882533e+07
-62.254025184444515,94.53395569580294,34.68204639307987,1.0843201e+07
174.20931661830383,6.70806339027331,-0.4735001327705465,1.6183312e+07
49.98107752074395,-92.47662869306583,22.797373382918032,3.3648585e+06
137.47322840301013,-126.74511194636939,46.1024832428398,4.405707e+07
113.31148625764557,-12.17479885909421,29.8570601383662,1.433437e+07
-165.90777422523587,2.8777880506110023,43.75533130677724,1.443715e+07
-134.15951574771697,10.30295347349633,29.231245034479638,4.5718125e+06
-63.237216806413784,110.19903510579121,2.6283019827204925,6.954695e+06
35.351233954018824,100.26291341368825,21.04548275919256,5.9478555e+06
133.87013589722432,-76.92496335227248,11.729745021987092,3.4691415e+06
-54.9161309111862,137.80203132166162,45.91598811671896,1.294744e+07
-116.07087612997762,61.88111208386198,31.73378841475664,9.586996e+06
-124.47364918353458,-125.17462596072927,-4.630935421478659,3.184962e+07
181.6384405840642,-52.151788836010184,42.944165723172944,4.1454564e+07
-178.88290070147787,1.7438882406831908,42.84936092494923,1.8669474e+07
24.716505798618243,-134.75026994110615,33.613844630948094,1.1977617e+07
8.777415555930844,176.99961647237495,28.399102399678878,1.4234561e+07
-11.689596537257785,-100.48669677012136,16.774514514303856,9.771966e+06
97.68449322250945,-82.02772415425623,-4.751617021902315,1.429616e+07
-175.59711515250393,-67.70599626984563,-1.1349347920252775,1.5330118e+07
66.1676441135931,-150.40581575152066,36.55558269795115,8.1955655e+06
148.59669183138118,37.26125980786952,-4.546011118420332,8.04137e+06
-15.068740325649712,-117.37927861569068,30.704539199976324,1.0917308e+07
56.944933718468,167.46919808781877,37.40567802227805,8.950902e+06
-145.68047607749787,41.565071906580414,40.33485650572859,1.2197931e+07
-171.34378182907054,69.46378648421438,43.68751706311583,2.6920538e+07
-72.95112833820805,-159.80074945751306,23.632502562643744,7.8300585e+06
-121.39843885204473,-0.5073320726840507,18.289706533104916,9.185037e+06
93.6270198709629,-51.821699639015094,1.195104046729128,9.528167e+06
45.775035455828714,100.2498482235361,43.32113442941949,1.153983e+07
101.17616866313608,-109.76724389646586,7.290777489995652,6.0549135e+06
62.61446973097168,111.73801307034738,4.20267946072864,4.3555725e+06
29.566720603082473,108.29946088269122,11.38402514139116,7.496672e+06
175.51582025336268,-15.942802374076336,0.267422902218325,1.5953814e+07
107.1768776885803,119.52929128098846,5.879430012084101,7.5890785e+06
67.4480941910947,-163.6169643905533,24.172739490156886,1.2189807e+07
-120.6299082236701,18.858862275591946,46.31705780645906,1.0708882e+07
-171.46573678036395,-48.28698827514097,40.37875571780057,8.066717e+06
92.76581632305141,119.4646179081613,34.11120646372286,9.467847e+06
-80.25992727763497,-124.72880155758826,33.29006267330452,1.1476818e+07
142.4329422238472,93.49852226699807,1.0698571599821056,1.1271733e+07
-58.586455461176946,100.83930589289342,0.24508344460303447,8.367683e+06
-133.6112361004288,97.6439984324902,43.225139416747666,1.4480142e+07
-114.24021211064041,82.94760958309297,11.542149825436582,6.4438795e+06
-73.86856767796908,-81.71700155233678,-1.2506841002662212,8.899916e+06
81.12762193310226,64.86323617167363,20.514282216808965,4.498884e+06
-75.62216990109438,-126.33312748137833,26.85056598214437,9.012481e+06
137.3449786504068,-110.92107867287942,18.872197326050717,8.423497e+06
103.28420326568181,-17.125711592076613,11.110693302802613,8.489668e+06
131.385910445994,112.12026138664812,17.44990875278272,8.932391e+06
100.50599847902816,60.46581348441998,5.470975519335891,8.403676e+06
10.343099726146477,-106.80729294647952,2.6316032428499523,8.51629e+06
-14.974875463743587,-144.77246286255593,27.13944682125203,8.543879e+06
143.15268397317692,111.06746983391639,-0.35574885505125575,1.5645639e+07
169.43809050935522,-64.95862710559757,46.09719026760917,4.736762e+07
170.6932598330718,-32.964196322203065,4.797602730044399,1.2497231e+07
80.70639753510494,-136.7293629018647,26.36445082262176,1.11451e+07
135.2398667141897,111.78414660524851,8.763159490707002,1.3160829e+07
-17.16361600605981,-160.649782668964,26.286593912258667,7.8704605e+06
-68.17078110274463,-81.5528577547397,26.144050348434813,1.1805905e+07
17.031325955599726,-129.36820791572745,14.020365401864124,8.890844e+06
-176.1049546260033,38.740586358525775,37.802664157215894,2.0412466e+07
138.44861627705131,121.43694681761696,45.15173813688466,2.017558e+07
-122.97647914724465,59.77520820212032,40.0360169050151,9.671605e+06
43.04137300273641,-112.3977804353653,46.69559188048966,1.5860608e+07
-130.4428724711558,5.172889907182707,-4.101077283581734,1.3889532e+07
-3.136657180992671,139.32688852114143,29.6027967520368,9.557544e+06
-13.886450994874794,-184.36840015418792,-2.5564202052919343,4.484268e+06
171.66056868807067,-22.85881232813668,31.49915564146812,5.449304e+06
-176.7740267477265,1.6269615554275845,30.2767248505152,1.3145919e+07
158.79786925261988,-47.67914422931935,43.18471664364321,2.491669e+07
102.14855002671624,-91.16068472440793,9.690127308853697,6.259943e+06
-102.61559011085035,51.350035856759526,0.45928842009107956,7.604527e+06
-135.33570025308902,66.4611882051683,32.476708333951805,1.0060478e+07
-99.0417844110277,-47.83186768619737,12.949151752586747,9.906709e+06
-168.74687991657478,30.20302412456698,36.47071173248731,1.4681542e+07
-64.10831296684117,-130.69100334873642,24.435543083161605,7.5928165e+06
122.36326875265621,32.115030367936896,28.6133366105552,1.4232095e+07
161.02390780452652,-16.09980062394891,18.965429343203933,5.685139e+06
-30.31029735542111,163.64266276689244,8.21617028929055,1.7348658e+07
-61.138730584557045,-79.89098622050288,-3.1784552255934946,1.2607921e+07
-45.43622918586681,172.54144916006624,0.6891831614148899,6.589301e+06
-80.17167999449666,96.27322712659094,-2.540123513303936,1.1813304e+07
-158.37272054514779,27.43432195003859,8.180306103373743,1.1122815e+07
-152.17580923127616,-2.918565203483638,6.347310618621779,1.0096379e+07
184.28201706418008,-33.70685103522061,45.070964029625856,4.714605e+07
95.81145076103701,133.22236365208892,9.028803154576256,6.732563e+06
-77.48629715154674,84.12200957432475,39.3316605965756,6.8933585e+06
-27.801997425582186,121.88012847590113,21.452022817955108,7.3820735e+06
128.99802284731896,-129.91658812796803,39.704514342664176,2.0303528e+07
54.64480410168733,168.75284810114135,15.70599085517808,7.75494e+06
173.92934969745585,-8.626842607669403,25.928841567103348,8.456218e+06
80.72534149940537,-133.72486590106115,20.377084793473003,6.9876455e+06
-132.22417540108853,-107.71085518194039,4.111606495396486,1.5537337e+07
-120.22520963138601,126.79498100679984,28.200606772997673,1.3775621e+07
117.49953329421866,-48.435563324777775,1.9023016859768553,9.332066e+06
-4.5332116908114415,179.7025151127241,18.18290623354372,1.845066e+07
24.5580513153881,113.01276696135113,28.678628932017943,7.9427655e+06
-147.32691928877665,-43.00946346087753,37.601665931258275,9.000333e+06
-131.78691923053128,-101.67470527509188,29.071904094002477,1.1196692e+07
-83.65659888042379,84.17836180618872,0.5455990429004859,6.3823045e+06
-170.10293848239394,-63.187761512249004,18.12997361504117,1.7670646e+07
-63.64470747898335,-127.6530914945086,13.229721560287883,1.1379714e+07
145.2853252391521,-11.014838765097096,37.61031885615207,4.989568e+06
93.5196930867001,-110.04252148714978,41.43380885435097,7.1276945e+06
-59.58104932400025,70.42678836999767,-4.243770595424988,1.1551053e+07
151.91867393570175,67.5929462663255,26.137885172456826,1.1408444e+07
35.46501688477014,-102.77514078672469,12.696484773962148,9.578525e+06
165.86428704499582,-47.08573541653385,11.395743690393335,6.2521e+06
105.21325869170181,-7.796663790393978,6.8064888302322055,1.1089245e+07
173.32435140590383,-21.78517568435683,9.762089500231184,1.012588e+07
-95.5895797959292,44.28465161972474,28.89821346446476,1.1279643e+07
-113.19857900947494,59.510870438639074,-3.5315794463952703,1.7796252e+07
-69.90293494054686,-102.27636688537149,-4.511690369641155,1.831891e+07
-78.27540234877594,89.71014117451045,4.435085766347873,4.46815e+06
139.88803927011577,55.916077267505415,9.063128194303125,1.1016068e+07
-180.87202198482206,-7.438372736260447,24.152146226265018,1.9981734e+07
-141.26523722263494,-97.59895925928697,6.5388939429622335,1.2503908e+07
-10.007786471617749,-124.55838979906363,1.9306188627126062,6.6696565e+06
-116.53987453021814,0.2465116469132056,-0.9533258239898026,7.369184e+06
115.47764059514076,-132.2367066833122,14.422320485370612,6.126092e+06
43.40654985296632,106.77192598317136,31.213800453512313,8.373101e+06
133.88303390498868,116.75999860443102,6.239874286998715,1.394355e+07
-18.820911242148952,-144.83771659156903,22.079594142297825,5.5134785e+06
111.92662045089236,-45.35802204917826,8.520721526357002,8.493394e+06
-83.86027445626843,-46.23594594737352,22.424329164173418,1.1585388e+07
-107.78531059244342,-135.26923556809672,32.850882591372475,1.3018994e+07
-150.399796957432,55.99658898176244,2.083365914271952,1.3825057e+07
59.95400291048794,-96.88337702108285,46.979925904130546,1.5069912e+07
2.9813335875907967,-148.32308698486798,8.616539501409557,1.2822771e+07
-122.06271581798305,-115.80386282760982,18.790239832035184,4.3274275e+06
-143.45971971818673,-8.710866278557916,42.409255554271894,9.471599e+06
103.73069417758518,-155.7872788029215,44.967531580607826,3.162697e+07
98.10164518194944,43.08395981553696,17.016644421709586,3.450275e+06
-8.088685890168534,-109.31325954667822,2.7932380878422474,7.2657175e+06
108.42398853630908,-22.831185940772684,14.058495198659566,5.678133e+06
8.557673881881101,145.46700890708138,0.7603892951622575,1.3299033e+07
-5.335972564854785,147.8959817159074,28.100382381097646,9.740047e+06
-128.71295360090352,-60.10778686568398,46.60507325380739,5.380687e+06
66.45867598377208,111.93252842156711,16.036082274149464,4.639914e+06
-0.9287877497606303,-169.9354616885,7.855380043392286,1.4108744e+07
-157.7592695774751,-48.19584154841036,18.54927080756266,1.5124265e+07
-181.66746143631417,31.33517438539482,38.83605280235183,2.2345844e+07
50.175848608751274,-110.3793618061438,43.57769859778524,1.0849544e+07
-76.49620487047648,66.85742190650063,15.161113024892256,2.8280338e+06
152.89316516597307,51.82681312902969,3.187324357705263,1.3654344e+07
-91.16238856000352,-137.1476052065482,17.50331701397227,8.0261845e+06
-31.843125598763976,-179.27157218012638,12.762096642016143,1.6103545e+07
-167.50261013901053,-38.48586119125898,21.118254862847,1.7074026e+07
150.33095132365025,-43.848680918159204,21.220109748379215,7.603227e+06
136.4090009817216,31.741357049853434,12.679949370214711,6.821525e+06
-57.21151495632978,84.13486895682195,27.571783715132163,1.2131854e+07
-115.94048014667844,-6.543903778173955,-4.473766496749567,8.325862e+06
-94.61561428047678,-85.12649555433067,8.280114523539568,6.319705e+06
120.71034324706262,98.77820943082781,13.98947774039992,7.3161915e+06
-41.058950844922606,-167.1570351006502,6.881099053945724,1.6273555e+07
-73.73677832962696,-93.12386818264797,37.92281029007274,1.3219116e+07
-65.06534045002823,112.23582794471099,-3.416026619196191,1.2831737e+07
143.7512490263461,24.680079906779895,18.309323386208845,2.8790778e+06
103.76413528592406,62.80718090746166,30.822352123714133,1.4548927e+07
27.36682981273856,-144.9950781490284,35.281064979503995,1.0969526e+07
19.826817785518102,-95.09375729156284,-2.8153299197455475,1.4708516e+07
27.77036241786078,-170.29821612791412,44.08970097873813,1.8060652e+07
112.58906009035627,-15.583081477686191,-3.794892458667465,1.0666476e+07
-142.92188724885509,75.91951178556297,14.206179364648914,1.1906822e+07
103.67102023942188,-82.33781145494983,11.339871760370706,5.961259e+06
77.79680355173736,-132.12444062748992,2.555135753934851,8.117877e+06
-64.27147666943088,142.70191949336197,2.6230375949718012,7.772231e+06
-111.4500702696191,63.35729033276942,22.376851304679573,4.706572e+06
-4.684807500451939,126.85320160068835,9.424605445756843,1.1749692e+07
89.47541226733352,111.45233550740852,27.074945798514307,9.401137e+06
122.3034387972574,95.722354111436,-2.622839040955864,1.1993824e+07
114.83903713726306,-70.48278218420072,0.17321469602790598,7.2805545e+06
-160.06242183910703,102.08612290927663,-0.27364019150158236,3.1624842e+07
15.106797729172683,124.03263877708588,19.376436089455268,6.9756485e+06
-157.51401951459857,-56.11229947998737,3.9802121434028797,9.507322e+06
159.95888651532698,-29.095994537346257,14.69356692818846,4.3208745e+06
-62.48830442793993,168.7576417650654,16.243235677354633,1.9418982e+07
2.560648944239176,-183.42482734745803,-4.981629686881759,1.2442916e+07
161.57196781242334,74.3271751015597,9.293317301845518,1.2582116e+07
-107.43795271025256,85.30746243506223,40.65167531455828,7.5565285e+06
-170.9039982125303,-56.59376205410616,4.6370636486308205,1.0979742e+07
-113.0477436358138,20.48366937499418,9.881283826282763,9.403685e+06
27.573914348054135,147.91053029533128,2.034483495627889,1.1901985e+07
-75.12996113994821,139.19800374366235,24.53158928816881,8.2464445e+06
-93.11335189456594,-97.29433780749174,6.179834553604819,5.798134e+06
87.85946177335336,-117.76114476486671,37.87061526257954,5.428924e+06
56.9889433159758,170.74371377954992,17.05254488445486,7.827724e+06
30.8427355450132,-174.17598007679754,4.233220479931756,1.0943358e+07
-87.83884156180784,-50.13527114316631,39.323156340667644,1.5166195e+07
-113.64211446944137,38.65566166577378,9.999998487976885,7.806887e+06
26.82376946678832,117.21459313936543,39.91690694475864,6.9079695e+06
-121.63382940967139,-48.07773584718902,9.696534721000358,9.618795e+06
-89.08850150382736,107.60987405288364,41.054611330751015,4.4473905e+06
-131.9802972945427,127.05999073381851,40.47840577833939,1.6027369e+07
117.11762910482271,-114.39345599237511,37.29809820641376,7.1532985e+06
165.04735592454904,-45.67094620323951,42.59174245415282,2.6701568e+07
147.0728642410071,80.28034913849297,29.075829029093793,1.2892307e+07
-157.62096213342053,99.84794990118843,-4.086163112020967,4.5560056e+07
150.8939565723158,-14.649968052949133,32.05790582806958,8.884244e+06
167.66116148048138,-4.306528222646307,11.356778775160183,8.860459e+06
-131.108247786361,36.20614874132744,28.650971515806333,4.4445255e+06
94.42897386921067,-78.06109899269345,29.431773634570824,1.0848502e+07
11.634168427158812,-197.2028789402288,-2.1161915095146533,6.069295e+06
-105.3683712926532,-115.98894684041841,42.56867886656325,9.285577e+06
-100.38160846458463,-48.25930944621507,8.292722267378648,8.810425e+06
36.32033353681666,-104.3281868514149,17.86271706183404,4.246039e+06
40.535122336819285,-120.9564086452759,-1.1375579969288456,1.0995978e+07
95.83925306491614,-102.53865254593748,19.798461708233123,6.340553e+06
-104.9619000103485,38.93100245226259,24.188728820957298,6.843637e+06
-138.75880725270076,34.95666591428858,-1.6881793123601139,1.703951e+07
72.31379570560182,78.63910984113994,16.594270110603034,4.46598e+06
60.82980151174536,-178.23767035550281,42.9597883018182,1.9734142e+07
-105.63684265800845,-92.44323495990936,1.4037996580774794,1.0371884e+07
-19.25149619667269,-181.0078684057499,32.061760209261266,8.2210525e+06
-150.07424562479974,107.847074296718,33.67879808938696,2.100432e+07
-95.09880704879548,138.65044195142065,15.762313093035626,1.4367844e+07
105.45827509089105,139.9382252977423,39.30662669682526,3.584921e+06
107.26055508470795,-87.6274353346433,29.465761412562962,9.972722e+06
0.5812220495112967,-132.65489639665077,36.55220099662102,1.0863845e+07
-65.29512905923175,141.16869322259657,35.666797370113365,9.211094e+06
180.6155565565253,9.855637640763518,19.832299650980598,8.758257e+06
-134.17320766185134,-38.72153018056656,24.992024694611395,8.1685895e+06
-67.01276888957827,148.41062148384339,12.34193830206296,1.6106095e+07
-17.176991904177243,123.00396944256157,35.25525943602071,8.9392e+06
54.41725509309499,116.16162161006156,13.371798751772992,5.3271825e+06
153.0138006821066,-58.792185019177225,0.9204246294200438,9.157655e+06
18.736367890056556,141.1778162894567,4.674636023856666,1.0929333e+07
127.39718000578881,112.47913054543426,31.783030405427475,1.2049776e+07
127.80940821945006,122.66783582410949,-3.692721166565661,2.437858e+07
-74.47452666662171,-84.72003767312341,42.70902994080002,1.0381867e+07
-102.1320279124232,-15.976013783053702,38.76433449870187,1.4529601e+07
41.73277788398556,160.91501496219456,45.09736116031826,1.5653867e+07
-184.27735497236003,7.137064505736788,21.513632467317958,2.3096752e+07
-74.07558651558656,118.44251261913708,25.959799620534998,8.521375e+06
-114.38772166405147,-120.63279165760426,33.19122437000992,1.3017098e+07
-86.73634673841634,-94.33356251830278,45.555199933325014,8.431171e+06
-102.71345099296049,126.03261217952502,3.727026134307168,7.77789e+06
-103.14412883784082,-73.68630215063749,37.32631872323387,1.4865239e+07
-131.93452829339574,-13.339617378493216,44.40969862921381,8.82205e+06
167.91249687784926,-0.5716133017434117,24.819871735978726,9.13926e+06
-168.93602931676503,0.8761443530568158,41.05032473522468,1.3399437e+07
-116.74923649569755,59.3993755316161,43.60641686212061,8.886895e+06
129.72576288631114,-39.6191976171996,34.18043592895179,9.243049e+06
169.43647182986496,54.93847477293707,11.674303759005358,1.018219e+07
-148.54624406938507,106.6665096902485,-1.46956568568903,3.1950742e+07
-32.01832802355216,153.9253970922436,15.929027701990464,1.5048721e+07
-139.60929806128001,-77.34060743077018,22.09515264827344,9.026667e+06
-74.74238840005354,145.12099228944385,15.375826798612579,1.456676e+07
-90.40951367513416,53.90293820408334,37.205417534573925,1.0523931e+07
56.260599294000436,-132.26075949484982,-1.790583182556065,1.1499502e+07
-34.70009427279206,159.36907993505162,18.441974834170704,1.4624128e+07
38.892990302708654,109.32129257717935,38.15894710935733,7.812266e+06
-57.02984520214193,124.69903820466817,7.535259357057379,1.0868125e+07
-158.87458648718177,71.04285637186968,37.5565866214582,1.9055998e+07
-32.70044939584551,-159.08532772679672,1.9368620164564094,8.753579e+06
91.55848489724724,-122.73347855000986,-2.156499501709987,9.204815e+06
51.4556461544029,-169.6722038232581,-1.6134566427018302,1.1432067e+07
166.3126826918458,28.412188397949823,12.47647477532892,8.674962e+06
71.60246117016766,-145.8132944487388,17.16423750554191,4.379152e+06
118.32803012541666,96.77972861845319,17.709332795660103,5.490826e+06
84.55152937170254,53.69052408524823,26.355173105180416,1.0126697e+07
136.7622790346926,-104.1689456206269,-4.690419693656666,9.408598e+06
-55.563211726109564,106.36660423831398,40.44195647286728,5.153216e+06
-61.56060833046033,79.59419602695237,41.6923074379783,6.369847e+06
145.32044907695428,69.55785834885984,40.50030793831083,6.3595105e+06
-142.97559657794147,63.932195616430256,17.521891857815834,1.1879505e+07
70.34924808171024,-122.00714206693668,39.64017209940583,6.93784e+06
164.28691898206966,10.529466824457813,-3.3001521640862945,1.2807608e+07
-122.43752931380926,60.44138632597055,31.661298313072887,8.93788e+06
130.49945331581046,84.77712761758119,10.191032996095174,9.65498e+06
-77.93799781274915,-167.4833869857997,45.49540263967569,2.13912e+07
-182.9298519601407,25.861630723263882,13.96604789536753,2.0038632e+07
95.60227845765115,-13.842083865838534,44.86519928776407,1.1217214e+07
134.8062205065305,96.86300424860815,9.920259583106237,1.0900272e+07
40.87023579551729,-173.9082061636228,5.368117338613226,1.0701666e+07
2.7457704399021736,147.78081262359694,25.511782912709297,8.836162e+06
-79.76800479295592,-152.94696111585324,44.79529399623803,1.5497908e+07
54.89658764493274,84.72572872404288,32.0241393183454,1.0304089e+07
151.34819194097355,-63.373908580454554,9.64543493464932,4.623328e+06
-61.9076183976676,-172.94019491257973,11.576754535898399,1.8090818e+07
-53.430323867317554,91.31266615702305,12.773767782650204,5.511028e+06
-32.998951553983744,-174.09195959346548,27.549874601603456,7.8517765e+06
-165.05794798792883,-8.301270773441928,16.996584834289255,1.8169162e+07
144.45626554561647,-78.86035075263491,15.776039178099449,5.5883745e+06
-48.06760453685803,-107.09718192035665,36.78819883817397,1.183464e+07
-126.17835903153053,22.07984931736894,4.205723756392267,8.0832255e+06
-162.3623558305914,-94.09704771099148,46.989560423763265,1.4620317e+07
131.88884866577263,92.79110578812367,3.247667522368309,9.969675e+06
105.60289248941308,-2.269986587127107,5.768311041387817,1.14032e+07
-155.76687885997706,-67.34286703685356,35.94876585163548,8.415734e+06
-77.00829229024512,141.12627268481958,19.06353125250415,1.1341492e+07
170.89081960377735,-12.961132333182631,35.232757263613884,7.363765e+06
29.493095892395303,95.40838420557304,43.90017550522019,1.3743981e+07
-82.8144367475891,-129.04153734844283,38.619110756053,9.365085e+06
-25.207591906236214,-98.61697454521217,45.632376133279244,1.2251406e+07
73.42048661146202,119.33383183938008,30.424534240379742,9.041047e+06
-90.97113683458082,68.82086340132838,6.887460012700805,3.6370092e+06
106.7158131237369,2.361176952140596,12.538673568968612,7.2984605e+06
82.51077617957992,142.1871618957942,1.5055111200556601,1.2182163e+07
5.770601561288601,-179.4829838553961,33.19327867783486,8.989563e+06
36.015819880176934,166.9998118760488,17.667299163695688,1.0170867e+07
-123.05344118187142,134.36736015370371,43.60542020981767,1.3088318e+07
168.34934211157213,13.76805288250128,41.984262313547276,1.7312856e+07
70.5414141623171,-154.19611826089326,20.099067303677284,7.926034e+06
-153.2358347566952,-40.083186711594635,7.974220473285167,1.1296808e+07
-159.81892023447628,2.0051940140048146,7.673000070865765,1.1556052e+07
46.82869899386347,-156.3338737835577,11.904803702115796,7.0802545e+06
151.3566167789428,11.31432510937529,12.703815517874375,6.473845e+06
66.41670274956937,70.05821085164064,-1.081890560643184,6.2768205e+06
-5.245284901478442,-164.6511942667534,12.122440542665991,1.2646618e+07
103.79673375421771,149.37117690895974,23.023407266336907,1.1450443e+07
-7.178200168806768,144.26715102841416,-4.816540526546414,2.0664806e+07
47.860031976031934,-133.29280609758246,11.987923310703195,7.8683005e+06
-68.81310229108308,92.70882213534088,5.752018731895782,6.0748105e+06
-129.82133156327342,8.324624678783323,-1.5418563906106946,1.0547437e+07
33.51096936657396,138.94601890710476,25.84087934273773,6.9914035e+06
181.37639482363295,41.53452801707513,-3.2881727281882553,1.4841917e+07
-32.401733392395556,99.4965370985131,4.038475651542167,1.0378215e+07
85.12820120056904,-97.63904465833657,17.824026055060752,4.533999e+06
-99.66032721461637,125.54687673157179,34.0143852522139,1.0708308e+07
-26.254996051101276,149.84758285796357,10.679044197968004,1.5749939e+07
88.82451123895942,-103.6993510767978,19.356964703986115,5.470642e+06
130.93735189285525,-130.19145920116486,33.101435376521486,1.0524441e+07
24.46113795678798,-111.286340786123,26.07044409773495,7.130425e+06
-121.965487324006,-73.0202953212065,37.91439545260012,1.3194589e+07
112.08787686547856,-37.99636281108084,-4.318586871345879,1.2238496e+07
100.07975518197077,-150.8162687555312,42.97481279587825,2.2386612e+07
-94.03176173396699,108.49259704960849,39.29155772195889,6.8151745e+06
29.672946929838762,101.06721723367997,11.49580191719468,7.203933e+06
-63.835700960719066,-98.82770412913419,41.212756006603584,1.0004668e+07
-173.40742581874008,-34.365633106799265,26.87891324211185,1.4044452e+07
-104.35899167304403,-23.727367331994174,39.266995266457904,1.456649e+07
-125.96085545561984,54.912248320084245,29.37673501207215,6.9115955e+06
-110.52420234820693,63.455323253576864,36.47059734926395,1.0271645e+07
-170.10001341259277,64.39994071739238,40.275503391378315,2.391993e+07
7.505306477208023,178.20680740131365,38.70950173982407,1.6210551e+07
21.97590827738992,151.37927751292904,-4.168912683926035,2.4515804e+07
-61.72483742436259,97.57278271794291,41.45354852849066,5.104554e+06
-83.76335686552268,105.82454025246007,22.723379433597945,6.8499325e+06
2.7036275733636614,116.06230811275924,36.147017184974324,7.5895975e+06
-73.78159738889494,74.66814600253366,-0.5529203435914448,7.982569e+06
59.90231705978795,-124.13811438174709,-3.8797868403472275,1.5820663e+07
-78.50423084756932,-95.51556014358447,25.521362265871378,1.0500587e+07
123.31919373941969,122.19925827645864,13.316640816379342,1.1282103e+07
116.22569032959274,10.76826943577612,13.884567013179332,5.450898e+06
-59.62697756838037,106.60910780586323,47.0096268667509,1.691257e+07
-54.36189637939103,-124.29885412824113,37.09207133674323,9.804217e+06
-110.5314035300264,-116.32817080927644,-3.3126449307907984,2.3843834e+07
-133.48900461742267,3.589443404925817,-2.8772383938978776,1.2350983e+07
-100.37308027960225,-16.70926510345606,12.923737002437363,1.0395476e+07
-68.18213617670361,-147.00320333121826,34.87453024892835,9.130809e+06
160.05264074139143,45.83175950962203,44.88244094177899,1.9962784e+07
-82.21701873863694,101.67320275257565,12.580175107313654,6.6554425e+06
1.6604826140139437,-182.8946526745336,22.560317357537144,7.2046775e+06
-45.885287981194494,141.3813718084113,-1.109868483204392,8.600757e+06
-22.05477919577868,-176.84942249898774,5.07175846899186,1.5300448e+07
158.87422968778873,-92.44054850166567,39.24220436402582,2.4596982e+07
174.35724214170875,57.159270577770535,2.212887906673601,1.6212315e+07
67.15915012923386,84.80386692817797,42.88075775891358,1.2370492e+07
100.03288768295084,-137.39323353371026,0.19472687422373622,7.191341e+06
-75.82942396400236,123.53301120519984,46.50252189606053,1.3139397e+07
-147.6172706765552,-47.23451349047582,39.09699358486516,8.877277e+06
-16.523023317552145,-102.16405307195369,15.39453719180043,1.0869812e+07
-174.9095941155025,6.245264298804045,45.55178011844053,1.9652236e+07
111.01918114893027,97.53988947620257,41.38769639221807,5.8548355e+06
-37.88456072712859,92.8934547101423,36.70250566293244,8.277213e+06
73.14399208698876,123.11779777709994,35.29924513796181,7.8034585e+06
-58.184309269916525,-172.31949771264334,6.896385839655254,1.864982e+07
75.30366562458619,-51.90033076012006,-1.0848900464716922,1.0504578e+07
-127.81201377956938,-35.69502744293206,4.7696413198683265,8.2859245e+06
124.35972800942403,42.503825498533445,30.781688018287504,1.5038622e+07
1.4997937397928638,138.2892843917228,13.233714434919435,1.1786438e+07
-54.25114458893941,100.8076077393248,0.596001537429523,8.747678e+06
-41.21569461415987,-160.51286579061713,8.575363187765312,1.5702735e+07
125.87214110106106,-54.28961205691727,-3.9863910499330486,1.0881082e+07
19.73625482256938,150.6515804486287,46.77395694228351,1.786104e+07
33.04463544026913,172.32634381016243,10.668555501920963,1.1253631e+07
-78.80416747777046,159.59509363048113,-4.71832250267945,2.1387916e+07
102.1071773633073,133.37119081887846,32.6335931434333,9.563361e+06
-26.523528208364155,126.0148506791355,44.65579710659587,1.1674086e+07
-84.35304158939347,-89.09158493852023,4.429710196615161,4.8247015e+06
-136.24846092625486,-90.21647338945841,17.894065069204597,7.243812e+06
106.10681884144537,134.67464862181203,12.108703170593653,9.933383e+06
-70.73408569866933,95.71966188515898,10.469107136715808,6.0503165e+06
-148.9556880551791,6.761223213332983,-2.8154504144530335,1.6778828e+07
110.95046362719482,91.704873137699,3.083284678971701,5.6707285e+06
-120.5899038031509,-126.77011619259963,19.905137520438405,5.251051e+06
113.97939025165073,-31.521416769200783,6.254108954115012,1.0220462e+07
122.94833026917003,88.90397031893025,35.56143284665676,1.1715939e+07
-101.17773814249608,-51.744256207152915,30.469050888159806,1.4229054e+07
132.35918622285743,122.73711603875199,21.855861610744572,1.1418135e+07
-56.991080927426765,137.58376623558576,3.7364825028842907,9.358851e+06
-0.6927040191967251,-109.08704490165361,44.613824114826684,1.2416773e+07
-137.25630197915166,50.796133537708386,19.837092263671895,9.082179e+06
11.174140750885044,-144.53634900845466,5.0384003376803355,1.1157419e+07
44.41506804947943,129.81704547197154,8.9630544799582,6.495707e+06
10.49682303593707,180.68038904869724,46.15328748388714,2.405426e+07
-95.94105951276322,-61.51349671692711,5.922431813704191,6.81548e+06
-129.44634232749638,95.54183486832216,43.099997248843096,1.2914276e+07
35.5421633433333,-160.26707501219727,23.334550609784777,8.843641e+06
-40.83067651303912,-128.4609869152136,17.861583344255813,9.399499e+06
-75.35077801344787,-161.1620382812971,45.707507947775696,1.9771374e+07
140.52016135145465,49.79714262736522,24.881484517467285,1.0638718e+07
20.77639587008568,143.54988723710142,16.562969263205556,9.402853e+06
128.71257823704497,128.2583407969251,21.47145875141721,1.1974716e+07
-132.31367236550193,40.222894981028816,33.06376151473812,7.8507105e+06
-89.74768866106086,-14.668554731936526,-3.256873502192864,4.1907738e+06
-98.49729968888386,-145.38201515430808,40.383153282988374,1.18655e+07
-64.30404337748246,-64.85297837940743,45.255979606371945,1.155536e+07
33.25818846148181,91.56629095600869,0.19009355261565494,1.1084372e+07
160.12008264688149,3.951479248951727,38.311490071156044,6.4782145e+06
-102.78119795099498,-145.06523272269715,9.371322631532825,1.3268678e+07
-26.961920199902067,134.92993135732615,39.94184047566078,7.1345685e+06
-63.4311832335572,155.68883559175214,17.32206365696786,1.5296348e+07
-51.05478916720284,176.949976537037,30.77414276113231,1.4769862e+07
46.825138725087015,105.9207209310897,2.096580962562616,8.577224e+06
128.72829526809585,-5.723438980665151,-2.885623118328377,9.830701e+06
59.54734555114129,-83.57448015169298,11.297653609444847,9.61124e+06
16.833595228184976,170.69887247616293,9.123208618652114,1.3799759e+07
118.83675844259803,100.36142557660321,0.09533164679849242,8.468397e+06
-27.55549180309228,-184.10810343390511,-4.183226891290294,1.012951e+07
121.22805876972167,-87.24673509080603,29.447315145256972,8.898747e+06
2.976146899233271,-119.19902268733074,-0.0962342346796685,8.2403085e+06
102.97078829409189,59.157304918794296,39.08652917757573,1.3549724e+07
149.65554141554122,-23.888284787051447,36.31483301809547,4.493139e+06
115.45038220526817,7.533813249992903,11.822950242498898,7.6902795e+06
99.10763522773374,-88.81302151563956,38.35920938884961,5.2717825e+06
-148.49084900056062,6.0412576655691055,14.59109792440476,1.4456884e+07
-116.22052877970165,77.53655487294157,30.095398947699007,9.561753e+06
-123.32208372453626,114.99061881343209,1.894943667635995,1.3328288e+07
-70.05081311868065,-109.96759716847899,3.6078258371560206,5.1877975e+06
122.72876555051846,110.6532893549966,45.819294180790486,1.5430412e+07
112.45302980660256,28.577422234127734,31.340084866849885,1.577186e+07
138.72778185987562,-11.139256592717118,28.93506825184589,1.223796e+07
123.40843532258725,16.037941576482098,38.00647391339793,1.1945199e+07
136.8403434581274,54.650003037051675,27.14133735677345,1.2630083e+07
-117.99969890678369,-90.6343115477815,11.985063825625467,5.6855e+06
14.428855251605768,-173.69505182159162,12.781644347715705,9.754888e+06
-85.64685682768487,-102.96524078964086,11.550449137662401,8.133683e+06
141.78572928402434,37.16028437670488,40.8172370093407,4.6750405e+06
-114.74501577627144,24.81266811137263,26.37815932039223,6.799158e+06
116.23115113186526,-34.692989114966224,31.624628219650234,1.3028336e+07
74.87822951248285,-136.5912507705287,42.81566420193,1.2000051e+07
128.7026985191173,114.81990132477733,3.209489664565372,1.2206578e+07
107.49303166707051,-23.571704397527526,13.078151260851438,6.5004825e+06
-132.13187031619992,65.08592822987373,47.332420603166845,1.6177203e+07
-84.90842792421086,130.53017450589454,5.145402860809406,8.443285e+06
114.65898608534468,-76.71810630685916,28.96014165735343,1.0235591e+07
-82.20211316840387,96.74008307690343,10.424725238131323,5.898682e+06
136.08655955704262,-115.26044507027397,47.44712344632916,4.4453104e+07
-103.71561101291711,102.65047875347244,9.441597469856074,6.98862e+06
-64.86472802139954,-167.77527969223985,12.156903858509573,1.6802712e+07
12.387028247802078,-135.9125487479273,29.73313334861637,1.118232e+07
-95.63808329640952,45.32149764363308,0.6393091465793479,7.0736975e+06
-159.82728357936435,-38.972335259982884,38.31260281106955,6.9464055e+06
-71.84014603088036,-148.34811612243706,44.74223564568241,1.3441826e+07
-91.9730184649234,-102.69361579431701,3.2997191932071566,7.3282655e+06
-60.31743847113904,148.95010127304613,8.48026117221922,1.5210928e+07
-99.60878978537284,-90.39223775736929,28.137677404643508,1.1702091e+07
-181.62700343383156,-47.98360129495896,-2.5480679260545243,1.322444e+07
-54.944143369241345,136.279184585979,45.3891249727454,1.1469697e+07
70.97829892798302,-88.96121114504894,39.605532345594966,9.539513e+06
-125.88439088840357,-25.16214162652153,13.966929114892785,1.1514572e+07
19.942720059594336,159.14858164871714,0.26384786190239845,1.4306265e+07
57.98584503039956,-104.94172404375014,-1.7992286827818984,1.1679179e+07
-119.71899509661594,78.47708549684711,22.546249084022726,6.863673e+06
-91.47166899484675,-159.65435925242622,-1.2868504737503792,2.4540454e+07
63.72340122471854,-117.74651972425967,3.6791267574924524,9.155314e+06
172.52950706189642,55.96848033046115,7.09270574646238,1.5123575e+07
-88.90612736519854,160.48547753701195,36.854523210335806,1.0239187e+07
-17.020882933112887,155.51555433739287,32.58053511935312,1.1767549e+07
75.81687616458453,-147.21606805809813,10.890566712058323,5.9818815e+06
-138.84610637593534,-83.71682084873294,37.44891498413803,1.1214425e+07
114.42956534452763,26.416328415108836,27.32407722960955,1.3295603e+07
79.2633978998366,-61.309241956574624,43.792785807215864,1.1176638e+07
-130.26960951059846,-33.67217159873755,45.19171635445764,7.486806e+06
-0.23760278410040314,-155.43178956231048,-0.034732176886665134,6.063456e+06
-103.38514540072579,-93.2256300072015,32.127674694308325,1.3481282e+07
119.42837344429711,59.48248768317807,9.198888511524517,9.726892e+06
-106.48419797609625,89.99117755483991,47.27376524186153,1.511874e+07
107.36281857741574,-147.7435187471619,24.978273028858954,1.230933e+07
4.683095659503863,131.03804432912546,41.75217769792284,7.616185e+06
6.474946367028253,-150.0321910313371,0.05223985436382971,7.006045e+06
78.32203933991354,-141.54592426877463,-0.900707904021864,9.621537e+06
-112.82017931474475,-11.501235657067525,7.838532850382712,1.0277414e+07
66.30182541750264,104.65721846442936,20.048552260685664,4.792802e+06
26.9313511201596,167.42450770336393,22.168807587857632,1.0284888e+07
-133.83547303051103,60.441332465282635,20.722615224903265,8.2640015e+06
118.49246278015521,-99.04488129473617,-2.6266791296132954,6.681573e+06
-8.150496480033496,145.55944268209402,21.112299959819655,9.355574e+06
21.268115751973767,-96.11438770190261,45.643971808272745,1.4408905e+07
36.770540389366374,-127.62443687666462,31.394604530360795,1.1918995e+07
52.39151435378133,-109.0806939013052,35.60831880925507,1.1180175e+07
-55.09464543302997,87.30760357642464,-4.554678005452561,1.3389985e+07
39.564085918239215,-96.95200266313661,4.943638203748824,1.0293532e+07
-103.13810490849362,76.9735330385596,-2.144312028667308,1.3784891e+07
135.47959317896112,29.981088417835366,36.49969851135504,1.1377316e+07
86.96734017718626,-134.29311874454064,47.124456906557036,2.6249012e+07
-123.94894738746625,-6.603030464898665,41.559367937744916,1.1156837e+07
-105.89356404762529,-111.55824612497781,44.47509698667764,9.03356e+06
159.5885064878646,10.537867413606108,35.850395362662454,6.7215605e+06
108.67561553120719,121.66069426138574,29.44528692651884,1.1154753e+07
-124.19718307486973,62.726518822674116,-3.808568482708389,2.266322e+07
73.03942894947483,-155.24625829314004,10.559553933593385,6.318655e+06
-160.01279248976252,79.14396409350474,32.080297624741185,1.9048492e+07
-0.37726248832029796,-183.17982026575046,3.2055155184317443,1.2233544e+07
-101.27539824331473,-148.9446561525919,20.71684813810149,7.9760375e+06
107.24772697950154,76.53142782175041,3.2324482762443947,5.920679e+06
-153.24016578785887,20.19659834484537,-2.7397372938685707,2.0966956e+07
-66.43769648183883,-117.4375264494067,25.02556442611998,8.685202e+06
30.86981998107254,-116.09388667974589,43.860395170088495,1.1965733e+07
-32.9669933885869,-125.77960127731833,23.2169061593071,6.789298e+06
-116.85010171067142,-58.52171855309592,15.719292363795054,9.092226e+06
-111.10263082678222,-24.116287450829162,16.113168900577193,1.0152483e+07
48.8990432412015,92.07329845576584,22.154635146037798,5.726873e+06
-181.27996420052392,2.42844165663368,1.1845375711280972,1.3811559e+07
-57.20223216758629,126.3946796229356,36.455564607815134,8.737797e+06
-174.817278555008,47.45518061440214,39.903339753151535,2.2821228e+07
-156.85454248214285,85.50078661730208,9.966274624236089,1.1768804e+07
49.50712576280972,-181.41602423462197,-4.599151241720503,1.7290462e+07
-109.70467091365003,-92.56688796936983,0.8353968656889798,1.1833805e+07
-17.723465386236,148.49871492408136,1.1481085035100869,1.1249647e+07
29.007313362968862,124.5054243887875,0.4353375402543341,1.3347971e+07
-141.2011578984147,32.217277615519265,20.878960151374123,9.1903e+06
-168.5905875282769,71.04381857436454,15.695830609954381,1.798761e+07
47.450055256331325,149.36371565095726,0.09626697823120615,1.544962e+07
-95.18237573755405,-114.62548804513295,16.015386137304787,7.0373835e+06
136.04284742386773,-86.76227708600325,37.536683470289034,7.9565865e+06
13.7216515678075,-169.35767930720795,39.870426345780125,8.162404e+06
26.928398572689932,100.07540539933206,-4.649083436744927,1.9412244e+07
128.18121238363483,17.988303267951807,24.153934517893394,1.0325242e+07
78.39481472287673,-115.90618598487414,-4.9346228867985955,1.7010666e+07
66.54814678893229,-151.81440031595343,46.77291379762013,2.555418e+07
86.46944237752245,112.19764672986696,42.61786011934512,5.543669e+06
-12.540553985175364,-112.27027120213239,1.7501164522923427,6.2822265e+06
-123.83713526090196,10.839521528754148,46.3159096742914,1.0191706e+07
-87.4161355832542,-87.5162992521402,25.589482821920697,1.0828207e+07
-12.065669378168138,-130.10838954219065,11.735377149958037,1.2353977e+07
91.24368017395875,-48.73754665863376,9.403998544998268,9.434283e+06
118.14547712007356,21.3952603905569,28.674235898297596,1.4354004e+07
-121.36981642317023,-62.1078119002031,34.57639516576195,1.369896e+07
131.27603729036548,18.325679064316432,38.57868603040488,9.368788e+06
133.50627369298974,58.897680752701156,29.07370867435598,1.3766981e+07
59.384422504164604,143.27840725051863,-0.6989187059372963,1.7191532e+07
167.81163268901287,-82.35219138311645,46.278380329848666,5.197512e+07
167.42046077149536,-68.28961017753983,15.365422229022833,6.602619e+06
45.63297743581103,84.84362438355782,40.38426843317202,1.2301468e+07
169.71694316239376,-62.47141022266286,-3.576417087985046,1.3018908e+07
93.52085385986413,-47.493899718175044,32.91347554634804,1.3276701e+07
-126.08278868294266,32.38702729631609,-1.240024641224534,1.2621906e+07
171.6748224804486,-9.231782374328958,11.312960396700653,9.27022e+06
-15.967434348445664,177.01929213938826,21.963712288216797,1.6413859e+07
-63.52036738228642,99.64560712912697,18.964278887374576,5.2731285e+06
108.26378184388928,-23.1317795814615,26.091739157170977,1.1718014e+07
67.83820101450038,91.19650497888136,22.7335951838432,5.856091e+06
-127.97214712422202,19.103199577385823,31.687946006842036,7.628173e+06
8.500493293345954,-149.85621394786648,31.07240716444869,1.1445364e+07
50.35527627315511,-124.44833084442845,15.22910031412031,4.821846e+06
-25.885566382055913,-104.69172959471335,25.69662123161627,8.339449e+06
-118.15620692947157,55.62739193056449,12.650638497139258,7.059997e+06
132.67036644654763,22.90354007393765,21.20971035049068,6.6221425e+06
27.105454467797728,-176.80647642452536,6.630366656455243,1.1715578e+07
46.22802915570455,-143.23032886496162,44.38779323366259,1.4809881e+07
-144.0920045555099,-51.506300441920324,44.25046400706046,5.933598e+06
133.46322648920864,-101.94830448058134,0.7646599941303575,2.6845575e+06
-90.86319685464824,57.96710669666993,0.38175537379994207,6.973411e+06
80.15530703310986,-122.64191189033365,28.21421874859816,1.0726809e+07
105.54857432200572,-54.394113310202926,6.308786855308679,9.152138e+06
138.37706844297702,97.10435356148776,22.700214930400072,8.75206e+06
36.79731895629175,-112.28837529609304,39.17349873772082,1.0898008e+07
69.93055125769814,-111.75525684385619,17.487988646866732,3.3173868e+06
-137.0999496143533,26.681071097510767,34.454220374202784,7.929524e+06
161.42334294785599,-57.84655528428178,1.2402058655056498,1.0253236e+07
-12.694475918990122,120.03989178411372,46.07366801244101,1.5858776e+07
132.4192257120593,53.41062755116042,27.489995289698612,1.2995161e+07
194.48789892309975,-10.946791131692237,-3.9154103433402616,1.9997574e+07
-167.91935575873327,-36.02429674487436,3.1814877052443347,6.955086e+06
144.19399574762468,-23.820832462639117,44.38379240993777,1.4599005e+07
-94.45806708163369,95.49493311599366,35.13968309154808,1.0554691e+07
49.832287193701376,102.83373728042812,12.700871059856766,5.703072e+06
92.99394029006362,92.86246642871089,21.150839103940307,5.64272e+06
-101.45734650739854,102.56115169143396,24.04579930730271,7.946121e+06
-70.98242344691448,133.55972686542333,41.31698095787897,3.6854635e+06
136.25198447598865,-87.68647906986283,3.4821549363565927,4.192063e+06
-120.63598915502354,-27.546085591057988,29.567370500361132,1.0620825e+07
-122.02569068646748,77.00568285865177,19.527197447809446,7.4726705e+06
133.96577368519564,-81.91427644927049,32.971496298275724,5.113441e+06
115.25010357630549,-12.237013240033605,15.882595175628754,3.9393625e+06
52.759766484337376,169.84983630815668,34.49111136608551,1.013301e+07
-61.08600462145205,160.8978820789905,7.1628864113612405,1.6230791e+07
-81.75935636867555,125.73936883739634,4.0503922160834005,6.703381e+06
83.38560599108183,-118.73718840470859,37.32106564654045,6.2756435e+06
-67.99076392157062,70.56397285359128,47.211752469698496,1.851081e+07
-43.62404743856544,129.5325022746705,28.76597469520057,9.86833e+06
73.13264019064002,-148.88980608754883,12.487292569519216,4.941702e+06
-141.51126838125253,-14.317044431472766,23.058630625922085,8.806632e+06
-82.81001523468548,85.4176475701367,-1.958419143394931,1.043087e+07
-161.0448531492895,-58.589635819970795,34.84139122028822,7.2522495e+06
-128.89693506524358,16.359797536313437,12.888156581266006,1.1141207e+07
-30.59929766783037,158.6842155965561,26.580245029730364,1.0819319e+07
-8.613377223770499,-90.66131212425974,46.92765856123157,1.5536754e+07
-33.631238930339805,115.99805042372645,17.0905916369655,7.5344635e+06
27.190721272166346,-135.11492785473354,43.944711309032975,1.2787574e+07
-3.7631431860872624,144.72111225771573,29.7238155716674,9.908776e+06
105.18810202477613,77.9893545614122,10.792627919649428,7.5014885e+06
105.6735067567858,-46.260818652412325,19.923503586229565,6.572975e+06
-45.39258390629465,175.29232813299336,12.538385021247208,2.201862e+07
100.40086829363901,-92.23624577972988,0.9506409073956725,6.3566305e+06
87.9544951202144,-104.08843725885717,32.847177166182966,9.485847e+06
-152.82829722204826,24.64253146950969,27.029786667681968,6.83683e+06
3.8916068149704017,157.24781706265065,17.69745667187778,1.2585596e+07
86.89494845498655,-130.7914531350504,27.86640934364302,1.0987472e+07
132.83794948053668,-107.26826211323427,-1.7744250042694445,4.2502835e+06
136.20187569591508,-2.9431072378225736,17.51790621537873,3.0164005e+06
-108.79014027118652,12.21796339754485,33.71180318710765,1.2629872e+07
-115.36624369049288,110.14116656160809,17.158587699008038,1.1370485e+07
103.53034447030194,64.1060271686909,44.96741861921574,7.8421055e+06
-6.700730482288862,133.38173402343762,3.039129908346654,1.2214919e+07
79.09566765262622,-106.92528914764567,12.399705748724589,6.3122245e+06
102.00857532713223,-11.41581941618864,31.10606637909099,1.5002027e+07
-79.00780256047403,167.0094967170587,23.662466794295405,1.3394999e+07
-99.53678976434519,-92.70390452049794,10.477090371534459,6.420857e+06
-161.49398436347488,29.24267477302135,35.42789423709098,1.1221366e+07
-155.6289764488112,-93.64346207467608,31.07470605653649,1.1773785e+07
83.84122341109497,102.0852870637172,26.074769605725557,8.699825e+06
161.19701240685964,78.99897051836041,31.633968203526948,1.2274511e+07
-97.94000430053131,-44.59774993647167,29.221854033295777,1.3808708e+07
-122.86593121938134,2.3200131959437726,5.618169338978906,9.347764e+06
20.21041396159268,163.82293631951705,36.834621968602185,1.1491026e+07
-92.41696144097129,140.7573907482281,-1.699212248635166,1.4990899e+07
-68.61667943791625,-141.67597009268084,28.956596526815595,9.040675e+06
-180.11915041942143,5.839811130643341,5.56085498190794,1.0298022e+07
-147.5495779763823,-88.10198348152997,-4.6714707361451016,2.2700618e+07
-111.67240219145759,-6.211777030833332,13.673028273938623,1.0441387e+07
102.4537346976208,-44.91401317454327,22.441761618371622,8.282954e+06
-111.64071748540465,37.43728004326451,43.272424692095704,8.899937e+06
115.80251596787974,43.633614812899594,0.20006642234239172,6.922671e+06
93.93479871091836,-80.254356260357,5.316937056222462,8.373963e+06
-66.15588790050677,96.65153556587944,-2.3308670725889726,1.0613017e+07
-128.94940987958327,91.98755923701287,26.405921169818527,1.0919086e+07
115.1063741474631,38.02499019485302,31.83796105518389,1.5741096e+07
60.39138204912553,-100.9888895453626,4.103416394703198,9.552617e+06
-26.20099542625286,-182.28919374090128,-2.6604515648446685,7.004147e+06
-118.52142991893166,33.97245134226199,11.318286354860305,8.75876e+06
-1.2830556541766498,139.32618128351328,5.284428003455974,1.2374282e+07
-126.09560887091273,30.53947476260697,24.647574022496595,3.9087918e+06
-128.67141817290798,133.25800479326455,0.07812612915645055,2.2829298e+07
-89.66233678417245,159.39206090773064,-1.5659100138114617,1.5413296e+07
114.13522354678582,-109.11120576380968,44.486346972260904,2.0564468e+07
-88.83740345331428,90.99727356591734,11.683278029075545,5.094107e+06
-56.27995898273781,117.79225236691319,16.025029866561777,7.991448e+06
-175.13065710561105,46.55489429227168,33.57457388593153,1.940414e+07
-73.7767942646797,149.68669274066428,21.20020678056591,1.119471e+07
36.3394241827674,-113.95182576286928,12.60395390468755,9.138878e+06
24.855876626229247,159.71499918851572,6.369862840416825,1.0432442e+07
-144.8283980187165,71.59304444826745,11.278190681946388,1.0296704e+07
8.559117138284392,139.92387638821316,33.17308176560487,9.317393e+06
135.6639789965933,29.801907031346047,34.223639898986825,1.3266912e+07
0.595157919552264,164.02092387961136,6.097187520670856,1.3730561e+07
-22.22479298095149,-136.72632953342386,20.299232031526767,6.3662915e+06
-57.05351465624315,-151.8634726126819,18.921141602541525,9.180846e+06
-173.48042071018867,-37.59358317058451,42.31160439926206,1.0570319e+07
166.89006035860854,-18.564302176022494,17.640572847542543,5.6569705e+06
69.06360609443982,159.89775057573212,-3.400429641616841,2.992299e+07
-163.42050338112242,-45.133131226809695,-3.386931610171995,1.1916634e+07
131.1838860809583,66.31716139683351,46.64937927065663,1.2871854e+07
118.02004599443974,-108.7176649969738,18.464575956430544,7.197169e+06
22.82183392810805,-128.4756894896193,31.32849253616275,1.1852397e+07
-63.18289027054954,-108.15317999954125,26.274276119112866,9.8921e+06
-41.640117777722196,101.53569743828348,40.79660775587299,6.0233305e+06
-99.44310161078324,-81.05042531152233,37.45674324435061,1.4498142e+07
89.07727222913581,67.51735934796568,38.12906719548964,1.443158e+07
133.751278989662,-11.443871136548722,42.534678021694894,3.6053688e+06
83.3456270893144,91.06352369653348,34.62565254658067,1.2339105e+07
42.03333788358009,-163.88233098926852,39.7434030189596,8.830397e+06
-78.18539915147574,114.15877362793918,24.975775133109156,8.0691415e+06
144.393032885308,96.63881434238618,11.12020148315068,1.1267099e+07
165.4844742461314,70.85154856113178,10.865212973083427,1.1141722e+07
35.27119828821924,155.34066563250167,10.999158270125708,9.407112e+06
-170.94550674037464,61.318672700510724,16.83773414026866,1.8924378e+07
146.6385088036689,69.96857291668096,45.80542409437313,1.7553158e+07
-108.61118804539544,-64.88999202166346,5.742278312885377,6.8455635e+06
159.94701249696675,71.05193123709,35.99554182153842,9.386866e+06
30.07745980612935,-108.40026550065093,9.455363781340285,1.1236078e+07
42.37921227954868,82.16271607790821,-3.6467977534785585,1.459009e+07
96.89378148983889,54.24224564307124,26.878290026215026,1.1576129e+07
-109.77697234705474,30.281754318532077,3.5099431091782733,7.2858755e+06
-165.68172326089234,9.235188706364681,46.81129567294148,1.7287856e+07
-11.158840620511285,-161.3737577427349,9.296159541854351,1.4296126e+07
13.18786159533451,-174.30292838014876,1.8091000698132838,9.174634e+06
55.45749186540099,-118.40875460096427,24.69263084794896,7.7176395e+06
95.89888764377281,-112.76409584635466,32.703109181975925,8.48953e+06
-143.57264108126967,-30.79432074326695,1.921706242021389,6.434239e+06
-72.31587655160196,-153.42316916555262,25.600146157221612,7.7693375e+06
70.7502388909324,-140.94913113911022,16.341102655304102,3.5181322e+06
66.44910559833545,132.9365738282712,14.311244042306647,4.764408e+06
-7.78508679675278,184.2366859408466,25.463689813363366,1.7086172e+07
-77.29261681622432,-95.63419043417265,2.5954878647987996,4.8198945e+06
-101.9291558310146,-41.69614400722486,7.09043392207454,8.795446e+06
-109.97924587370157,106.51616427501335,17.048994620063258,9.821543e+06
-112.80000947946318,-126.2811870555101,27.20688173915464,1.0383103e+07
-137.22295160850342,-104.658633816239,1.7533571119725198,1.9139976e+07
75.06207544031173,132.26868353076947,24.149793623606335,6.882088e+06
-46.38708014557679,-105.96720221143592,21.438594922480483,8.800519e+06
52.068366619562,176.92234056294382,4.590688622689708,7.6275595e+06
-73.08362778171511,-82.9824478529066,14.615520325975229,1.0414924e+07
-13.106113292772392,168.29419845986473,25.4651223379025,1.2785533e+07
90.37950977921366,-76.79762569001211,17.233985628765012,5.1823135e+06
32.68797446959974,-179.48927995333798,5.337835799943484,1.124608e+07
52.766333748312235,144.52944777690436,43.677284922094465,8.798667e+06
80.17110588079402,-114.55026595139235,28.993837991088967,1.0551907e+07
-114.92608371651207,-8.71819126080672,40.659994756793836,1.2484363e+07
-5.201788207802025,134.8232427373128,17.338044573933185,9.608271e+06
-95.44450197210357,116.3565545753093,44.33037577745471,6.9499405e+06
142.52661950133017,-14.071582701365683,28.538383409006485,1.1576993e+07
-124.94510433676962,-59.38623742215893,21.899757069711224,8.618319e+06
98.17772676457668,-29.583398264393566,32.53715306403354,1.4466581e+07
-25.87203668366317,-143.9987046911897,-1.2611096434721916,6.2972715e+06
-172.46112852580725,24.487325283405482,22.39781936272921,1.8404992e+07
-185.7617491836082,-38.194025121822165,41.940042947113376,1.5268634e+07
88.44793059050738,-160.95625402354983,-2.431355392705135,1.2991713e+07
145.785652270482,69.68926414956826,8.166485625509742,1.1951993e+07
105.33916427045125,-6.558831734026795,1.1551381484033445,1.0523585e+07
74.40669400147033,-151.71432433515724,40.58105512982847,1.0406737e+07
-57.841684061790886,125.42463180975285,28.58314636339051,9.799246e+06
-46.1996674236712,111.9443076976574,37.58308292603681,7.7455935e+06
-21.540920952776645,-148.73446130191996,17.541601530346547,8.558201e+06
93.65631049218268,62.50534140027304,38.987605512774884,1.4296045e+07
43.78802000295164,92.26522543506644,27.364166619375023,7.684226e+06
-78.54824086437961,-152.06515417336,45.003918232958405,1.5618357e+07
-148.28313529052667,69.5311170527334,22.6373781726732,1.2778154e+07
-129.59276274886463,120.97083437744283,17.671701744956515,1.5932995e+07
144.5664076019939,-46.908064845499354,14.900996724378397,3.458515e+06
115.58703111678625,-53.76472711155261,19.597991171463924,6.832128e+06
163.72365175649037,19.236399326425925,17.880851646679112,4.862686e+06
-132.06851931293238,-94.74342936479675,18.38362201957112,6.295326e+06
28.846035960394715,-168.50152479861697,6.778653447735032,1.1485405e+07
92.40294190131686,148.42971330680444,1.5853580500600752,1.4715188e+07
70.11419833317302,-169.69025091545808,24.678351122127914,1.3289727e+07
-138.57033850857687,110.47171272672813,34.02703575118507,1.7397594e+07
-25.621685567732154,153.5250263185789,20.707294262767753,1.141077e+07
-89.38162711686384,91.07370944276386,9.078380074065336,4.71356e+06
-30.772022401743953,-171.9072310153727,47.371479480550434,2.7005182e+07
144.4037353645416,49.97108890215122,4.843611015717854,1.3080785e+07
-103.17611715914063,111.44985618871776,37.404903986423115,9.44789e+06
-39.297692887837144,-120.64078588131707,20.444911456551107,7.952335e+06
-128.5576790803775,63.75832227782866,4.375185995710451,5.792095e+06
178.54919492729448,19.093964917169046,45.61980037467977,3.5914196e+07
92.09609149256323,115.23014660130785,45.182784741654764,9.109473e+06
-114.65558621851577,-81.4635755410558,31.7915405194413,1.3148492e+07
-116.58011935589494,-19.62464536006766,14.32128903533837,1.0802792e+07
-112.58511225390983,92.78114397971609,28.034981736678798,9.61489e+06
101.45703707613251,79.15612180631581,-0.07302875381792612,2.2746482e+06
-126.63200224991029,-92.01704751553525,3.460186046478522,1.1812955e+07
-134.57884155720512,-113.84189109105587,4.710358968538483,1.6730691e+07
113.35530034263519,91.42819121122784,-0.04660167462226222,5.883767e+06
120.46760299948767,-125.11615973001828,32.9637937373401,7.902014e+06
59.88792612529205,118.2784579490425,-0.2860776350711061,1.2383026e+07
-128.50001135465277,-76.69634424146858,38.95303787579629,1.1851999e+07
-168.74046216988714,-73.77181828978946,-0.44439225335388904,1.6383477e+07
145.65207724773126,-25.58345299643716,46.51109092542382,2.2401516e+07
53.40444785130316,140.07343254099806,38.67929674195316,4.5323345e+06
-148.19458510450204,-105.3394544547559,28.184230483733348,1.1963225e+07
144.76895512678658,30.151704096293713,21.59022797796018,7.0451535e+06
-80.43353324032464,94.49124384127146,12.316224289412169,5.354332e+06
152.26045735604885,-21.395871416267056,27.196425015489453,9.794532e+06
61.450226065199274,-102.35517241534224,43.717753108283624,1.0263638e+07
-151.1287932431032,-36.72389787222673,0.06592366650456233,6.5853715e+06
26.632950812183026,-97.4967440820599,36.17816521656564,1.2142653e+07
-86.68353149114347,51.71871087843663,2.5649299946989634,6.1238805e+06
69.13461484133614,166.7177986307267,26.04594194425624,8.487162e+06
-11.503042219817758,179.5178499266355,-0.9843968852455439,1.1014759e+07
152.2377663865339,-57.52236064165709,18.371616888049584,6.3039345e+06
101.20427656204748,-75.53331056855006,24.809754202087824,9.552553e+06
-149.39624445782206,-78.16703663651387,45.317234622260536,6.4877585e+06
147.06221726559255,-30.75674999867778,12.45014402250305,4.2781475e+06
120.09622704996168,-119.86668765809058,0.9997146857371499,3.6067252e+06
80.6895000612551,-45.05639043937734,22.41765642584656,6.325204e+06
-138.7965149223686,-61.79479054985805,39.4291653092282,1.0347366e+07
144.99638299994461,87.29804200165654,11.10707593971264,1.0356696e+07
70.72298837482828,153.16032660421473,11.56931861741699,4.3967575e+06
-51.38792003143613,145.8010626036991,35.20785023141603,1.0042313e+07
-87.11888598316624,31.10716240192275,-2.659466835803665,7.690658e+06
-147.78294092794297,-31.42411329795664,3.132883531015763,7.00681e+06
55.43343764388502,-139.04070756526662,15.138769226606207,3.8208615e+06
152.00626806481193,59.00272098436891,23.40611891310783,8.833891e+06
103.69439283199864,-153.79410767152984,45.91054359422176,3.420825e+07
64.64004399435697,89.2976473225774,29.964137472074658,1.0025033e+07
-166.97232941973934,69.82181718939813,42.591450319443766,2.4407846e+07
-113.09290643412577,-75.80167366696564,6.23158311542186,6.6980275e+06
119.84829047362058,-47.14935118708178,2.367008985004119,9.426285e+06
-105.37132804511357,-129.6182253533762,23.064612844921555,7.341405e+06
133.72444602821582,59.52600264059827,23.22843131279202,8.581648e+06
119.36497292300196,45.29655085127317,-4.723621059647156,6.099562e+06
-32.1260398072115,144.09820053550789,30.820698585147557,1.0506119e+07
-47.78796037099576,-115.2956047437097,34.85831178206828,1.167078e+07
-162.82500998361343,-66.72110222496394,35.55671441747697,7.8743055e+06
-92.66842797977088,-37.905006146423545,3.1442403234215086,7.0361595e+06
141.15597514593713,-81.20013559930035,26.14580741048132,8.3692025e+06
52.21440839080756,136.61066166704876,7.679648123586109,4.884141e+06
154.34650168496233,-60.38701355922558,35.960224924407854,7.2307175e+06
-68.15474558880129,-106.50269028176326,25.04249905000565,9.53055e+06
-106.75922504865882,18.47485716637715,10.555076517972019,9.206455e+06
-122.7731573188394,-103.78568242524007,26.933556094546955,9.963431e+06
52.1980836786625,118.15516348327026,29.878341110651462,8.017209e+06
121.16101207537866,92.8973916593875,37.49021031139097,9.669106e+06
-166.71976914913984,-15.750792381916199,35.39852467161575,6.719694e+06
15.577197970588854,150.18244232908216,26.86066437683096,8.815027e+06
14.692928705568079,138.3646727036559,17.583688476441218,8.851281e+06
-160.89804912276435,81.8558798709438,47.471118540216146,2.6238436e+07
119.73111416302737,-53.8538338349135,45.870732557906976,1.348546e+07
164.37109996846095,-78.29510506490878,17.53719881113206,7.19911e+06
-24.944557108066817,117.29881495497001,20.850916524016405,7.2843785e+06
-141.76502486938983,-54.54363523498537,5.811899301187275,8.974615e+06
-78.38342497109227,82.04270613091,12.405036928834178,3.5017542e+06
114.64515166218409,131.56298574517757,33.96503886575338,9.531943e+06
-168.181535625901,-20.7023915914927,5.32213530117233,8.915189e+06
-66.62227501511796,95.53783409597895,20.304281404558935,5.828366e+06
168.70841905428665,-5.176049787396266,40.44002141868594,1.541408e+07
173.5669447990834,61.26108391442273,10.439931417450463,1.2175921e+07
-91.10418904245296,-117.12286984963795,12.532086442158374,8.0115695e+06
73.29163245557874,-160.054012784796,35.9273584060661,8.752152e+06
-176.56811848073355,49.03563984430312,25.389501038312808,2.0717238e+07
-83.91404383743333,79.61549305986108,19.12729018476404,4.0466152e+06
36.50885461499692,-93.34060909689926,8.92240945355074,1.1185035e+07
-177.62378236899124,56.123351436709925,-1.67030058242411,3.466613e+07
35.99271044275136,-163.75943130718366,9.393142043142271,9.986781e+06
-139.4542022268804,-22.487143796336312,-0.331433722936088,6.7044865e+06
57.09250330057478,-154.18355186051377,34.89621921132883,9.800737e+06
154.24834155625484,85.58362082067413,10.411302289536879,1.1627435e+07
-101.62829427351116,49.32240401343719,38.909924597514944,9.65094e+06
76.56361133080566,-127.00749943915056,21.865077018686904,7.3763495e+06
177.4323024772666,19.469930447259145,1.9091802510089557,1.7319788e+07
-140.05657753287025,113.38565227420678,-0.8223392636925735,2.711775e+07
-77.06581878986101,93.35114476698345,19.995878050380828,5.112354e+06
-92.87737880138263,152.7355059529363,44.12879607056875,8.2593035e+06
-72.4080908855865,161.17805531249985,1.7438188034368238,8.3665825e+06
153.33866293780875,50.19091883993022,33.89686386800133,1.1375097e+07
98.08646888239514,99.14322367392947,45.72813763500989,9.092182e+06
139.63965598593052,-83.61671209669038,-3.996202783871487,8.811507e+06
143.46840944055208,-44.92734993730721,45.884977057617604,2.3204962e+07
113.96933227473129,52.84102915343968,17.58700168165031,2.5906548e+06
88.85633163180756,72.96652327647269,12.212804369599585,6.3702685e+06
-126.28792929983472,13.144699387515232,16.893398859679646,9.780327e+06
85.35064493882447,-83.48559510364026,17.593203512495048,4.888862e+06
-63.466445419597136,114.94660889200878,28.687033114470008,1.0425064e+07
8.359432398472592,135.50281720127668,-4.097472289204907,2.1001536e+07
-155.54386841135312,85.69013833650104,47.025210971686796,2.4119024e+07
83.34839483330063,59.79572815448807,-3.8980666401654442,8.0750045e+06
166.02234892224482,48.38524134516197,18.764771047767624,4.6393305e+06
-161.95857205948494,59.259169538193476,11.18534405767183,1.284091e+07
120.7644941290934,-78.51368891534824,3.8236231867835713,6.0444375e+06
117.3410278011162,52.62886685657193,8.855687719978333,1.0005634e+07
-173.6564747949542,62.303433807063975,30.6203298960863,2.1296332e+07
-131.78146782491672,93.87173662503653,40.638481220735294,1.3344886e+07
-15.495865423721428,134.49314638144466,7.013260728848605,1.2888549e+07
-144.61806614187603,52.48540086379854,30.575093529735224,8.2013755e+06
22.809582443468457,-165.59272536094963,30.109537051258144,1.1854406e+07
-114.741707857522,-42.18617829948289,22.82136049825063,9.088179e+06
140.65409887530757,20.194500826743848,9.647649704720948,1.0171221e+07
-142.3040284302385,103.48147639552762,17.618148112788216,1.5899439e+07
-111.8817529038841,-37.047978075750365,40.915504079190725,1.3380458e+07
-15.116374455835796,108.13082215945855,34.30156822183146,9.060504e+06
102.83033132987053,31.277868889726307,37.00314083932367,1.6186726e+07
58.647556791080035,138.68605921270648,41.07917644882908,3.9327882e+06
-167.7448787262021,-71.68012257667291,21.072644435674718,1.5871738e+07
-52.29266053515028,169.9468831155615,-4.909755855931607,1.6393353e+07
-147.74743979996185,-50.92564128498407,14.913954051386757,1.3122026e+07
155.50955659994298,-74.10522628278846,33.5680449089413,6.30956e+06
85.62053667884595,35.55323564933519,44.665167052207906,1.4502639e+07
156.88958792056314,-73.3205684610033,35.1222731291201,9.130863e+06
-68.31450105189111,-164.4301326012648,3.5017585509564793,1.6521407e+07
91.27437330558985,9.997200756560886,44.29723148944258,1.3700284e+07
93.76665620159417,7.207208564011637,42.03222494135882,1.4668e+07
-85.10971759636577,49.4251512995329,36.02730614991029,1.1498518e+07
-142.83422990005548,112.21996423788079,34.20564281589951,1.9069036e+07
73.42847427608353,-140.2896445734099,33.977227458284766,9.599905e+06
117.85224925828102,143.1071858250275,45.39705454317675,1.974705e+07
81.21506816141732,-89.2946603078797,9.013410813840222,8.680395e+06
132.87065624655264,117.27805128010067,17.299910855094545,1.0270162e+07
-67.3151169886543,171.5963146770444,-1.7298746036993486,9.254403e+06
-115.28758739436067,-72.76420562977917,-4.35216385604782,1.4590173e+07
89.86806550266544,-50.071109402105805,26.727705619409715,1.0425595e+07
182.64010935112543,42.22791463127197,-0.9387968071691679,1.6613391e+07
-108.55219558909246,47.89985666790352,18.016518883822002,4.792908e+06
33.06810619055605,159.83381799389207,24.354888487642707,8.402862e+06
89.36841940593519,-126.90046587718706,-0.45609607912458267,7.629298e+06
25.093714370630064,128.30635327142926,37.15084407962677,6.7059635e+06
90.70221340863361,-136.23011573209283,28.043547743895118,1.1233557e+07
137.89330791646034,28.321367908306517,14.579576081429288,4.1338855e+06
-70.11214953840778,-110.70023049462567,-0.37957848628279606,9.1006e+06
4.184303569300823,119.60706660794722,37.19242868647948,7.1606975e+06
45.93794904510685,153.48837000671023,15.416021348505762,7.525381e+06
169.23774898612925,-45.17307189730144,-3.3890259294428273,1.3635398e+07
-25.56808325679461,145.09531820280563,30.542058772172165,1.0508167e+07
-132.55557438779024,38.70579023147479,12.711031374967234,1.0201444e+07
74.14741467866554,-105.91373169876643,18.989471866915515,3.916106e+06
-128.25410808419622,-46.795090582853504,34.69316663324241,1.2568874e+07
-88.26301188346517,47.67457398222922,19.039994682968675,5.689519e+06
-19.6597501200618,-118.15400884342644,23.342753591436708,6.4358375e+06
-49.10917426676656,-135.74568498268542,16.31467089024435,1.0690041e+07
130.13834138123485,-63.33136142682512,29.57116418310426,9.505608e+06
132.845143025411,-38.092494389065536,31.603601311599498,1.0495628e+07
-65.47593057349994,-153.8241585051642,42.54407629593342,9.655653e+06
96.5889229959497,-139.92640715672601,22.87887534416953,1.0492397e+07
-126.97212692172698,121.72714039026278,10.780180077595015,1.3439393e+07
-8.322320248050517,-148.91145458520526,12.840756381811893,1.1910683e+07
-4.658006104149138,-167.96158494002165,18.545006243422392,6.3431205e+06
-149.8454719904708,-41.996454405611416,29.015421984721424,7.320302e+06
-45.62808156321424,-101.62622611256946,21.333492931222885,9.106297e+06
54.26470910983826,-172.96159093457274,47.13385170908947,3.123335e+07
11.438613289363985,159.09279621404835,20.147205433311218,1.0980152e+07
135.94033059015186,-112.82259692921879,41.33997001090266,2.3241306e+07
-67.78698833414691,166.6736073478317,16.779441878649152,1.863204e+07
99.07359016048105,-42.17747144991799,14.136047124954379,6.318875e+06
-180.11150800325794,-15.10624216552273,28.81985068259103,1.499141e+07
144.67669308454248,14.771438202945037,-3.2272546294280384,9.563437e+06
137.18673303640225,31.58049524347649,41.85862559211245,3.6072472e+06
39.498613401566814,183.7658715389232,45.66717273484499,2.4290884e+07
58.914677130351265,168.47394767143788,13.094370601823137,6.6315175e+06
-129.313540919585,-54.503696177218984,9.052833190601882,9.333401e+06
116.98695464178724,-86.72187930043353,38.10497246769138,3.6199372e+06
104.7427857121495,-73.64732027410233,30.11313494926295,1.0841835e+07
110.77634148002937,8.93801052011213,-2.105213423798297,8.258916e+06
91.83699278558561,-86.26819841200377,45.60583069419434,1.2178936e+07
176.07230487108973,-65.69107540570062,46.58382327853304,5.4848904e+07
-135.88365786023678,-2.231108096293923,10.153676297682965,1.2070271e+07
-158.27023010342546,28.399096047512444,14.574748048687336,1.5499576e+07
-34.05075640372863,-142.03884421358123,3.3814710207666248,8.2971325e+06
-137.4329531634868,-103.12247911281797,0.05736626687286888,2.098957e+07
145.2655031152471,119.02706478676794,43.04859065338183,1.5180149e+07
27.309646954625464,182.51386007465055,1.9799303648324351,1.1724403e+07
40.07833126921798,183.4353268291576,-4.0592696379681845,3.120331e+07
97.4295579615021,-119.62634267345776,21.02888061834687,7.892995e+06
-15.858695299364683,-104.44965585232917,-1.425430535024431,9.832188e+06
112.30463086850058,-45.78187052931898,29.618370173473906,1.243627e+07
151.0271685795824,-31.42199427613167,34.221404142922296,5.235479e+06
-51.913486795683546,150.670885479268,45.90008913189267,1.3977693e+07
-120.44704537776782,88.2688862198736,24.65968853183519,8.583822e+06
10.72740329964978,-101.70878617684411,29.0882528275921,9.219298e+06
20.171965923401643,164.98359730205516,-0.4090690685091552,1.5555202e+07
153.73364732685815,58.007676823998565,37.01090860823543,8.557492e+06
-151.18108318535994,58.89616662618216,0.12857680171569214,1.9536378e+07
-177.3827026872406,65.49991108470095,-4.035696771127958,4.6664024e+07
-104.5737721301021,-134.87737422966632,12.11767020033578,9.013039e+06
-157.76778599808262,77.57510814762503,43.56971922223555,2.1832156e+07
-46.39173272693671,-122.45248555064182,16.514123646122567,1.0468943e+07
3.5572872478240924,146.34669477438104,21.033777806990248,9.040507e+06
126.15538130311585,-53.30827220143869,32.8931062969332,9.302947e+06
135.0416846532629,39.77217531175984,5.98302026788169,1.2455543e+07
-80.96586610600123,87.23864346991917,2.343918181125297,4.6550775e+06
-56.60775133190427,-115.09342740292858,4.9540448670995705,6.6154565e+06
-122.07385524164462,88.77200720202762,13.169200529032347,8.82488e+06
131.90298164514627,41.59050906710888,-3.0015648725106754,5.520532e+06
-84.81389902061895,-77.8316862207332,37.36040485882926,1.4931028e+07
164.49349748885663,66.26885508308453,-1.5988616873371624,1.1925203e+07
-139.1973615211421,9.32817953012227,38.96549438224659,9.982066e+06
-160.30461400450605,67.15551230571782,24.172069267966503,1.6396451e+07
140.18910484120204,-116.43531281247199,17.241411856633285,8.2956995e+06
-150.58489634471798,-71.77014725038157,5.057909220944603,1.1166952e+07
-123.1191317909618,57.344189502412014,36.24429091660439,1.01211e+07
88.91113532162342,161.46200805188403,11.72635141715741,9.263092e+06
116.71778961816501,57.23191912500505,23.914086743119924,9.202986e+06
47.0201721877944,-95.01015102000281,32.793514736694895,1.1347193e+07
-64.04261908283999,-130.50124317817517,18.375574786315266,9.045875e+06
73.26250267179717,-104.41003473280324,30.34515131234349,1.0673869e+07
137.73016748283203,-106.11589761782957,34.08499036552852,7.886595e+06
86.38084626393095,76.55855835140414,45.0940006526535,1.065451e+07
-91.48515412100599,-126.8938677300357,32.804142006567545,1.1767747e+07
-107.76413663937765,-2.7748576084490537,25.657069489882524,9.411343e+06
-59.074017339903094,-174.48689697049744,-4.139295698843839,1.9339856e+07
-94.43385798184364,-39.141652137021,5.128439107367232,7.9831995e+06
101.44467588953643,-91.89985373208995,3.6540330441168596,6.6757065e+06
152.77638168932327,-52.81572259271127,42.2202924699044,1.9472152e+07
84.4729680495438,159.3792947418247,3.8972738736114745,1.0953236e+07
-113.30508459782983,-6.452457606763971,38.73042058817135,1.3336846e+07
39.891539360103195,92.75155181150564,29.095575883143717,8.1537535e+06
121.03292273951736,139.0969191293305,7.3946495266867736,1.5231768e+07
-144.48517747396338,11.523043314016462,12.218828782525986,1.3257931e+07
-10.201182560213084,152.49335030823687,2.4438236481057833,1.1812124e+07
99.64816835577295,120.58424603900318,3.0960707501233666,6.8082755e+06
-169.26223557474813,33.64008587072843,-1.590587461996638,2.5888254e+07
-118.42641955867164,49.859051519905165,17.62632507869868,6.1377225e+06
-103.9716563766758,136.76996083003417,20.55303259664959,1.290681e+07
91.72654475393244,86.80914025293009,9.162144562545306,6.36438e+06
-34.543640783915976,-155.3568467540142,10.936375395590575,1.4722663e+07
10.689972977263608,159.81037038427058,9.838082925521848,1.3895478e+07
61.55894337253716,-117.25189918141989,-1.325728093347083,1.0655325e+07
-1.4771522352183695,94.66829480126637,20.41322106436061,7.749059e+06
87.17395618884132,-161.6742545254354,2.5652561614866753,9.785781e+06
129.71942965790657,97.99291633466459,29.292852860203723,1.2663705e+07
-101.40107935790236,69.90074923483212,8.348965534581637,3.6059432e+06
-149.98003748912566,76.41506120800676,12.574103406133268,1.2257487e+07
86.10798890178376,51.49597229172746,8.231103977113522,8.599266e+06
-95.40378896046637,-53.651006661603304,12.009628397654922,9.606755e+06
126.01777846622298,-83.90865871363489,38.20392219791722,5.068988e+06
-28.588008312227373,89.6113258035437,45.46768498672674,1.6262583e+07
64.09877575382899,-129.27689326713678,38.75594514000259,7.6071315e+06
-104.10846588177071,-35.26970730460434,12.113887755579455,1.0296512e+07
-116.78006853315014,-55.38748672690921,36.60431136219633,1.4547567e+07
148.2198319831503,47.973539983029724,32.077601875224595,1.2956709e+07
-19.39432878781372,-171.92064852048185,22.408989578720135,6.1687725e+06
141.20037059306958,54.56712478164696,14.38292192099616,4.907946e+06
48.851989007918206,-117.48379872333285,29.1813918881964,1.0767134e+07
71.78602467502964,-142.1454808674456,8.84221378005759,7.704696e+06
59.80940277194719,-94.08086833885592,22.076690545683444,3.940846e+06
99.47645264231204,-67.56416250668141,35.15681121434898,1.0310171e+07
-88.9273057469505,138.2272338292873,28.01649657287676,9.428699e+06
124.56785181670135,102.5233584903291,2.2146841700016306,9.099891e+06
-88.99260487920486,55.64653957664666,11.170078971357015,4.4300645e+06
-20.29796850498019,134.46885138905378,41.3422303690281,7.3596925e+06
-15.40248977480033,109.8764492832786,45.482285925129,1.5118073e+07
-48.13387656146028,175.30782888082564,-4.597587197718924,1.5065967e+07
-30.251734664903466,-113.75555644026377,47.03295531760479,1.45752e+07
-47.39791626398775,86.2038422878428,27.99860877946397,1.2205968e+07
98.69134612394163,101.96634246750288,6.959984044020741,5.4774695e+06
148.7471658317914,115.47909810987761,45.029277571929256,2.2220512e+07
-132.79732434043285,-16.959391496937826,41.79853969204063,1.0387483e+07
-69.27022606591572,-109.65839257015135,1.8839728123000958,5.5314605e+06
123.29127404612574,27.06495844004465,15.782377191108743,3.0536205e+06
146.82573150064565,-56.715064662186165,22.34533221662434,8.3379345e+06
-99.34890677539224,128.7548021823631,1.6403228780402974,8.900719e+06
162.32316996674678,12.640070228593913,28.09375982792178,1.0731503e+07
71.74085675342707,77.8340663474296,33.369028614889196,1.2764447e+07
-125.72799360809337,-6.260991974793654,1.8097945154446324,7.493654e+06
139.17899701853156,-12.53697694147303,11.22473720076248,6.719871e+06
20.25441163318581,183.41473940470803,45.84648118163633,2.4457348e+07
36.9877520945019,159.07004472752703,-0.7341377116583966,1.7707078e+07
-109.7605745923417,41.560690136564574,-1.3540535369451803,1.0486736e+07
145.36510855845097,-78.48680718740661,21.308426877065887,8.2006995e+06
48.854348774008486,-175.23844988642358,12.22306289131685,6.0538345e+06
-173.22636542308686,2.068834524756909,11.227249861898837,1.6559025e+07
-138.71537733850934,51.286454852367,27.86996888422329,6.079563e+06
-131.1992428990231,124.07571476621392,-4.967770721805235,4.0856044e+07
43.48756761600333,145.86569071621233,29.633373551062853,7.932324e+06
-56.90816481760073,-164.65579143866768,21.242410503172845,8.10348e+06
39.02385279262549,131.39057298315367,29.638675680439192,7.689191e+06
-77.11972329362825,-100.80872446494249,35.77312184736574,1.3379746e+07
-34.31590979299713,123.8840511516356,36.621429544865876,8.560275e+06
148.665469565923,-64.15716310784538,36.708983475266926,6.98623e+06
-17.992904164980672,105.5495677977629,-4.69132020740436,1.7054136e+07
162.74242725977916,-75.94444088145531,10.0471579417777,6.0900725e+06
-75.39897473286197,-103.46378737569424,39.015922673957,1.1425271e+07
-29.243599486318004,144.0692104486879,42.001729485572206,8.442978e+06
104.68394630072657,138.1646100764168,27.777164944218043,1.0859825e+07
105.84522619424989,128.47293428092723,45.4015356908803,1.3750021e+07
58.717762460413724,-115.92834439862543,42.90515355853846,9.64529e+06
-74.47710931419861,117.2930251131727,35.3451315946267,9.688258e+06
94.24834976600914,67.1114003794296,2.01665353559508,4.0587195e+06
169.17315378940248,-15.814094304334958,-4.854912647798231,1.4219347e+07
131.81949325952314,-81.07565192179527,42.419672467285494,1.5600846e+07
171.50202627212911,-44.724173228123874,-2.5638684755071135,1.3880357e+07
49.1854692381803,-101.25797690305065,36.13866950028548,1.1519971e+07
56.900207852614706,132.72067046910018,3.2368202036015075,7.3515275e+06
36.661883818803034,120.20961639038165,32.49956297917176,7.9052725e+06
-105.79152942967012,29.041676844328094,17.952282484783048,6.402051e+06
125.30933940339395,83.20570446861836,32.391411488912084,1.352195e+07
82.07908463353385,75.30399418477896,31.175851138114854,1.2848624e+07
34.07531068991233,-124.09218737579954,14.212681593338168,7.367268e+06
7.773848259201259,148.4050875244164,33.94587477860917,1.0061113e+07
85.74435729996651,124.44837163322761,28.877358380073737,9.322952e+06
-18.220106470370695,100.76045211519897,14.265987484089777,7.4555365e+06
95.37165707689508,-56.220034005511984,2.282334922378113,9.370036e+06
-142.04891644049482,-41.63819249999196,40.68736582697606,9.446769e+06
147.3743104767196,104.8568293231644,19.19256655825159,8.504867e+06
116.28146830716679,-30.561068491259473,29.613494510317985,1.3214667e+07
-127.69757940969221,64.75815355624974,43.7402514077818,1.0907118e+07
-172.89950637536742,22.665933389838386,1.6059068867261124,1.5494408e+07
167.14215582811607,7.582161597920931,4.659291814534539,1.5109307e+07
112.0179495033417,78.46974785231623,11.718133566004695,7.4047145e+06
87.81276735144564,-133.9707195787676,28.00012058344612,1.1150058e+07
-29.729709477793648,-91.44399024244537,0.9769886487196008,5.077086e+06
-26.696780329576598,-152.28223308623558,47.280451893456465,2.173788e+07
-120.82520966972523,-76.85567224338735,15.72708351076075,7.423943e+06
-171.56021623382145,3.67166786196114,-4.017004126257999,2.6018054e+07
-71.74425145875628,-145.69953934297274,33.61039291328178,9.755319e+06
26.90446326424265,146.67313320787474,14.592818921906124,9.76407e+06
10.289617817369844,-166.61521492862073,-3.1347213506305,9.959523e+06
-95.41923748822381,111.09373169351613,9.433943201794575,8.254518e+06
101.73719830738821,19.190224301749794,-2.280552783548358,6.8016e+06
-64.72327700709508,-95.95259015181354,5.117350270677622,5.2396795e+06
-81.5204081504962,-50.43814323802437,39.013249503287284,1.5206175e+07
35.61862221688651,108.43320522524347,32.21293889722627,8.199976e+06
-42.35225569240916,106.94393614886104,30.52750451562887,1.1397344e+07
168.181727284889,-73.19378225942792,45.68249739668294,4.716828e+07
-61.65337104432044,-143.81506579810946,6.20386118492516,1.2050628e+07
84.02433483056086,73.87523433036739,3.254584645504381,4.0321158e+06
-154.35249301473624,3.7868681710656915,22.52681998238148,1.1837921e+07
152.14239257067612,33.94407220673966,-4.102517427560822,8.782005e+06
-145.68786334907236,85.45570254397899,33.12519510683185,1.5524792e+07
94.90223927984067,-46.81076138423026,20.95596912457514,6.6686705e+06
121.0280848476466,4.9845702427959395,21.785659555195895,7.639418e+06
147.31222282281533,-91.73208176145273,8.11799117919957,4.254654e+06
21.738572063948368,165.30495796318348,22.23167675527337,1.0429374e+07
167.398559295224,-60.449368124484835,28.03964749079847,4.01176e+06
-135.26979794017353,57.11906757160159,1.5521126748729033,1.1403004e+07
-59.85788801296624,-134.4357547057242,42.99742489600341,7.2209475e+06
124.28736325770029,-21.486515830154758,6.753889334336127,1.035364e+07
-123.17868079138879,-33.156159354631626,15.073586250740203,1.0891123e+07
-37.308099268707025,124.77166847060306,-2.0982611340932733,1.1906262e+07
49.727449109216025,121.25679724500287,17.722664904733612,5.2573575e+06
-76.56923552858892,137.99431714518244,26.162944965549674,8.3701615e+06
148.4086114184483,104.1047343918039,38.74947681522537,7.613093e+06
112.01683713567473,37.63224483622966,39.916825874824006,1.2484768e+07
-133.68003660956504,-110.83933008033328,14.85092088154563,4.827227e+06
-181.84494649526957,50.54860393419435,42.909062503261666,2.8684654e+07
-187.3926626251808,-8.322224836284335,-3.79576064445039,2.6608844e+07
-101.38554918214608,-47.092202298288385,-0.14843611755007868,6.1969335e+06
-65.34229159848502,148.32141080538474,45.55198326348423,1.1717253e+07
-109.95404271670192,-130.9213519401955,2.762571871143055,1.7599452e+07
106.83999221366913,-85.91749170708005,15.67181613221079,4.9656445e+06
165.82639262947293,56.97782439914732,20.88156250247482,6.402507e+06
165.4336325830381,40.82085931374576,25.03887363046292,1.0542347e+07
81.4200183097048,164.6086371307843,25.940705455627132,9.436091e+06
37.99652230367366,172.14475508927364,41.61528508209208,1.361597e+07
-34.8083466975437,-166.90660604707972,38.103043839372454,5.0416715e+06
-122.97916465850847,89.46760607283125,37.96469733586797,1.137844e+07
166.9245272864514,11.745589234947573,21.483751924443556,7.7773785e+06
22.178286862890758,136.2875398722702,19.193925962483352,7.4587985e+06
-45.51457360358836,93.05609760864462,2.287521750094449,9.415802e+06
-163.1491611422895,-73.30117860388027,31.961002579012984,9.684114e+06
-34.46954312237551,-185.20725433329108,45.45739191128291,2.3878974e+07
79.6493567197005,-119.28782362700439,7.777616892876141,7.964932e+06
-28.844661931715848,116.27951502937725,14.05746107287259,9.055354e+06
-96.73129395667917,-75.40191161819108,20.19284615812505,9.044678e+06
137.63408677406284,-86.3728827797726,42.74057805414207,2.0825634e+07
-31.563476701742076,-126.05965474083173,31.199874899955866,1.072582e+07
96.22101038111123,100.33302728692559,44.28777748641612,7.06883e+06
148.2555769048899,93.27845670213424,42.937784324926646,1.2493813e+07
-161.83330765621344,20.157292623334286,-3.901165915065865,2.7154594e+07
-128.83346401466818,-65.33853970053127,25.1420736162758,8.861579e+06
-89.047569279233,149.2436301772583,4.068682363219508,1.0710433e+07
159.35888715559162,88.63867677790552,41.91940382874754,1.3343464e+07
52.52296761300275,114.45644002371773,32.27280401692782,8.455924e+06
138.75310493610425,-73.92779882751049,4.143710948733935,5.7478985e+06
-168.75585250829272,-81.958763301571,42.684393543293076,9.772932e+06
83.26344596024035,45.36326655407015,0.6871394509847955,4.961438e+06
-152.43744709942266,94.68788102831275,22.572786812332,1.8021086e+07
-83.19930981457264,88.39945276761694,27.655293965460444,1.0630364e+07
-92.5305343489986,82.29548292045814,46.343813923971304,1.2930986e+07
-107.95083999191961,-66.17898574105942,21.172949889868743,8.844014e+06
146.76489080377485,-53.06234337957915,30.115799214855098,7.240534e+06
54.3970574788041,159.24589647984857,27.601625741155903,8.0275165e+06
-38.34732601361446,128.40698291265113,-3.2077264548032995,1.3156487e+07
135.38009622964375,32.17793870187165,27.078128664986274,1.2836101e+07
149.92394485760093,1.1478095865060993,44.762638007957925,1.5344071e+07
-58.81186827394962,157.87119095907724,38.754615590226884,9.566059e+06
7.0722629333207285,101.94229364995016,23.82538969569201,8.0055845e+06
-158.34276976830807,-4.560950243331462,-2.7817198635919524,1.6417991e+07
75.69452532694964,-75.32265013402201,28.045619658405474,9.713017e+06
119.44975882200525,-147.20690176938484,47.42361642761548,4.5319024e+07
-57.44116314408686,-156.06801575847138,31.470069286585147,8.777697e+06
-114.1872251130128,-63.82343039689622,20.222670750242568,8.541059e+06
87.22594574824973,138.69128106159422,42.489204374671274,5.496668e+06
-157.13727227328712,90.73945317080046,25.793467828847625,1.9211972e+07
64.00901155490726,167.12077970844194,32.5745741508822,9.12305e+06
-16.862171295383774,101.64733696025463,3.138588821142658,1.1475219e+07
-101.6528440049409,130.91432631276854,45.49075581948326,1.011598e+07
-82.97529106487617,-125.18753021483796,41.118024919393484,8.030664e+06
116.34919629574216,95.22886028844505,24.985891760077077,9.844093e+06
-40.29480950567827,137.50572388719064,-3.4517785215979853,1.3053347e+07
-167.62240319016712,-84.76854681853592,-0.9851434268317618,2.0808634e+07
-171.9212755480831,16.98512654068108,22.93312487484386,1.7694146e+07
-171.80962612685673,3.8604765660120965,23.213582826881833,1.7257594e+07
73.82102075261872,-69.24036356229078,30.301543229022137,1.0908345e+07
122.09536921368516,-102.52830073531251,20.05219162648654,8.0982835e+06
-91.76314712669055,-117.51815128189884,7.5782594388194795,7.9560195e+06
-11.230994578893927,-175.52841773509886,46.49203908717169,2.5279454e+07
-81.9324417152456,63.9999247384614,32.94073879320479,1.2443831e+07
-132.34050909810878,98.57551385529109,8.519993390367622,8.459611e+06
-102.672932384168,-16.894573096981702,15.898170675805442,1.0014005e+07
-37.08990121175697,142.85649019261638,-1.206613347257944,9.792535e+06
24.703726408338383,-106.58129056108838,46.22537340648316,1.49941e+07
-78.50047546359878,-163.0196673119288,12.528593956657701,1.568206e+07
124.83734735186806,68.64562608274935,22.602674710778818,7.617097e+06
-13.32526875548524,103.31660671171375,0.19973956825224734,1.2880475e+07
105.79449895450318,-108.89468873640232,11.64776310756439,4.529577e+06
-116.54460610464294,63.290126463805564,46.31116625875554,1.246713e+07
76.7251183660631,-115.42543583826993,2.5636076054557897,8.040111e+06
-96.40042962979174,-10.515642535785474,42.84915799871033,1.2086421e+07
-111.45159679985909,28.63720780282915,5.6772904158016635,7.8197595e+06
109.52367257817326,-96.71227981487979,12.433868981728907,4.5156295e+06
33.70280740448615,122.51907859463459,47.32474886854824,1.6834878e+07
130.3620338108313,100.31124170308713,5.59913268310532,1.0958998e+07
-102.25241314575885,83.69946199107596,7.751456505579097,3.106773e+06
-2.199067610581153,-137.19919896912512,38.85201168058981,9.384758e+06
115.45427910868062,87.10781283950263,43.44368786000746,5.883867e+06
-118.74773635698155,-141.2485921065834,29.91540908312848,1.3730956e+07
86.39135923476545,-66.43635272675166,43.91107262731582,9.454843e+06
83.96390066943684,-153.47979563625893,30.50454244328742,1.1834704e+07
164.02279315740242,51.33366508449617,4.677297732986269,1.515999e+07
-102.37759929365806,-53.50290346861044,32.37714889032239,1.5075628e+07
33.46989769764849,180.0350025072667,2.8437131142834176,1.0606221e+07
-134.48174849265627,94.63097748273265,34.21893743559404,1.4236247e+07
-103.33780406345383,68.37175070614927,12.058400534338023,4.556764e+06
126.684209449749,123.68112794193404,11.72791386651317,1.2740302e+07
89.98710369108596,15.660577204404689,45.33216478053215,1.3402745e+07
15.898092235345956,-161.82803074149578,1.791729864840755,8.81686e+06
73.87111738886455,94.65560924826246,5.799468784181419,3.5206178e+06
-123.01412631938535,19.50659726702,13.039739768359418,1.0252968e+07
-97.76099029048369,48.00207147089006,19.540622841843952,4.8965125e+06
117.50085312109013,52.257087800658354,26.029723614794374,1.1698265e+07
87.15722815785193,-89.97541501558213,24.360424481613162,8.392212e+06
14.626787619707443,135.43765925905853,31.970700992329043,8.844555e+06
-36.25696391648927,137.18669987160888,17.026953841700774,1.0822828e+07
-71.91242515428118,144.4268312033168,24.32335083867899,8.617093e+06
-98.96727561777129,-110.57631075998233,-4.855940600649227,2.3312006e+07
27.64338628742266,134.55447658345992,1.317376951432925,1.2601471e+07
53.87168864570765,-172.96358707926805,25.530000018069966,1.2910441e+07
-80.0128030768863,-98.1444096134243,3.6657585994792083,4.932044e+06
-74.54303221370142,124.60397344546419,18.035667870439575,8.677734e+06
7.234973273750882,155.7249340541751,6.960605844228305,1.2981597e+07
41.77639561904826,-114.30757005606029,5.713686690691051,1.0610586e+07
91.67340077938576,129.39466102400934,12.137537406152632,6.2713695e+06
124.13080454279202,-10.035182627871109,8.732271681396803,9.702109e+06
-73.33875578724904,84.13613819147145,0.8180118149945574,6.7055925e+06
167.90408894365402,-63.10690033206109,2.142806130833737,1.0600551e+07
-150.95981223108708,-88.88306055126174,45.813833697967375,9.178909e+06
1.9510369027631498,-144.6016165811822,0.919205265870343,7.0452515e+06
94.57599519294115,120.76569314011137,40.83903497783595,3.581527e+06
-145.87527037250103,75.1011974734152,32.218584113417634,1.3403389e+07
-127.50028408540012,-71.39408599775052,12.930203706553606,8.2505175e+06
-104.35232143930241,95.52812918386257,45.08187088124617,9.525034e+06
156.09537498521536,-49.49784944307095,17.924469330762154,5.77831e+06
-21.15450388481358,147.5375175841334,12.098352865083452,1.4982178e+07
-139.8386426741069,-35.21550359186597,27.975135366305416,7.376004e+06
-4.939042270869862,166.21808650759482,22.029594198562727,1.2859786e+07
149.77111476937154,24.065490260844626,19.213949559274532,4.282363e+06
-76.38887743318632,-94.73509052791451,9.355611830341275,8.1417155e+06
2.9707030468065625,-152.66972858051025,20.566860913949938,4.6017225e+06
-82.20341805625067,-99.12916548806857,36.340159619697495,1.3457724e+07
29.455905938190423,-108.47056513700032,-3.1489413932156602,1.5397731e+07
177.96319371402018,18.12330055086474,24.89563535584929,1.0237946e+07
99.45488599644796,141.99643474305446,5.456596399208537,9.435819e+06
-14.453020077835705,166.26342143424063,12.614065951215196,1.8117884e+07
183.0398913796855,12.401250589900712,11.045234745679565,1.2677101e+07
61.40576160923495,89.54243625785296,14.183060552377189,5.2098215e+06
112.23398512142933,-139.26129165844804,18.84539137343859,9.110648e+06
-68.48489587766474,146.25176406095989,45.122509004609235,1.0186539e+07
19.415157161438145,-104.59390096705943,43.67808944704044,1.2309521e+07
108.82049443546259,149.2240987463984,3.6609244180051816,1.5494436e+07
-73.58716487688012,-144.78067355964345,5.912176988637239,1.2647034e+07
130.1962593770407,34.272049465131886,26.594626730816582,1.2587733e+07
-126.88343355565345,90.67207907723821,20.032715420108385,1.0336869e+07
-43.35702970571455,-88.03137853180796,47.302216679717574,1.3668964e+07
-125.32837572119621,44.78728193122089,31.349767184067836,7.7307585e+06
-105.03043921331731,39.32143596808433,35.731721850827434,1.1528154e+07
-15.855033293474149,99.49891149140069,39.50904759491075,6.913351e+06
-131.38402459510363,-66.71867266700454,44.61945902592268,6.4384985e+06
-60.142504929875514,121.81389044272966,10.038709228638016,1.0782853e+07
48.71035541238183,-121.07704945775954,37.08235681249125,1.0375659e+07
-111.03229129804602,65.64253905162161,47.28986945139274,1.4735081e+07
-37.4988120059177,121.9050540143644,37.34824116208695,7.980364e+06
-95.78163677099111,-154.9585051433864,15.822912061296886,1.1140718e+07
-103.670528787543,86.16736266942087,4.970309977953932,710362.25
-64.77077008011136,-142.65813049582806,0.08155565406762626,1.1002301e+07
-170.8929560063071,22.880094775816588,6.487957186148149,1.0806342e+07
-140.00138699148664,-0.04735783579042163,28.344953184566428,3.9580692e+06
-73.29705682480649,77.5537102275303,42.77418528449893,6.805898e+06
181.55995063907238,1.8240169779302564,1.4522671908453413,1.7729448e+07
-98.90216478222156,-12.815402648833954,-2.0316263277396285,5.054474e+06
101.33923597094821,127.12964451390667,0.33799594502647323,1.3115162e+07
-110.92455048556897,133.4686992426727,34.12427272892194,1.235034e+07
-127.87167892373058,-53.529453440126986,19.193666549072468,9.402562e+06
29.316111621535867,-98.04171740414142,12.185929129233742,1.0443602e+07
142.75004555033678,77.841862548611,-2.2375245548190996,8.96204e+06
23.358997993233288,178.25125830459905,45.06471915643295,2.1054172e+07
-195.9224845988657,-16.911626932794036,-2.4392779394773836,2.1866632e+07
173.31596863564926,35.9671326619345,20.365172324785643,7.483268e+06
-67.98156915439617,149.99249598957664,1.013725696678199,6.4330545e+06
51.707046958445176,122.07033747164752,27.774750064193885,7.3526565e+06
145.78490676042276,19.88702377334826,8.796245901802065,1.1167432e+07
-163.77360897415366,25.545988181347923,20.64596108068739,1.6217241e+07
-111.23698852643646,-96.96713763330749,6.880295084447488,6.8728885e+06
-45.453208625188864,77.70086133077888,-0.1341649117405827,1.0124943e+07
-48.54809798501708,-169.01516859122984,38.46513299639015,6.1097625e+06
-143.07316117178647,4.7149747826768476,7.530119333818662,1.076738e+07
56.603751713370286,-126.11736640945321,12.077212524049866,7.359643e+06
146.68765371928794,92.50669420061303,40.74507020970951,7.8366215e+06
-120.85401321504622,-48.293348806892624,38.92110319214392,1.359202e+07
115.22977787804808,114.10341899537298,45.273413560122556,1.2545205e+07
18.009376617804094,181.90078401004126,-0.48434676444092406,1.5368099e+07
-25.40403297665955,161.6276294473907,46.085520161891075,1.775559e+07
-163.45026061320175,-38.89841606352911,38.14355977496551,6.718078e+06
96.71942375493899,-131.67471861387082,19.334358550020927,7.4202275e+06
82.5326363446186,-168.0779008945971,0.6243348593849859,1.1119195e+07
12.715553000063096,104.80835322903378,44.18974643307464,1.3174525e+07
-138.96005418421026,13.588565730121077,12.579925015039358,1.2532411e+07
-50.63376312137952,-161.08325948527272,12.618252967429104,1.5141615e+07
-114.47695055199665,10.601083359321933,15.154563119800102,9.405659e+06
-32.07307804554554,-180.55012408236618,10.673835882304331,1.7768878e+07
-110.72744098267364,9.393132505677784,35.658775859835664,1.2897274e+07
28.182315724898416,108.3537884614416,11.713853924412035,7.5349255e+06
-150.28063423428466,-57.88380148605947,2.7259758623248866,9.103093e+06
61.58776656360033,-123.1311905637011,34.54834142323727,1.0471379e+07
48.21732044563848,172.86479285745668,45.301959801334796,1.9732114e+07
17.13537438107764,-186.50312178321875,45.36267313933183,2.5222702e+07
30.041020488715247,174.16649772710525,31.068333224232408,1.2623838e+07
-54.656745130257086,140.89521636530765,12.862638230193106,1.4173243e+07
-110.36960984405582,91.75342404859782,15.232862939102475,7.6121645e+06
56.76709430260786,118.1183372749208,47.43464151082331,1.5173414e+07
148.92211688578277,-79.29490498405949,16.36714676912742,6.1525825e+06
9.466236833968992,115.8328939597671,38.0387072866841,6.855251e+06
82.32679708203284,131.75347974604279,20.59453086158024,6.3185305e+06
36.800929733870134,-142.696483150648,16.219615395108672,4.0088428e+06
125.93025785996275,-119.09562835223299,29.081301895689055,8.691244e+06
75.21687596304463,-135.9667921245724,33.37420888220751,9.863142e+06
124.14128994863007,-87.90638334452865,7.466549730522785,4.4785055e+06
-173.37350659137013,-36.13548853610874,40.43983968802054,9.493962e+06
32.39086783789483,138.21865458128457,4.229983449404595,9.524551e+06
-16.72163877313659,123.39158069574722,23.474367455486217,7.8522025e+06
-32.209403657917676,118.72572535215598,41.533853395022234,6.505257e+06
-104.6744351262408,-73.08458057141812,3.4818690694656516,6.526408e+06
-48.11817415727643,-134.10353039607816,33.897752511867495,1.0034279e+07
-155.46507642362587,-74.52913385133834,19.655171075758197,1.2634557e+07
79.5268445816933,-88.26841683204299,12.722278360469385,7.1208455e+06
70.92618519630452,65.5955637307951,-4.651360366782647,1.2006811e+07
-91.30225674025785,69.74225640571427,43.36226710100332,7.1929325e+06
139.2139431314268,79.68298888168346,9.263306301234016,1.0853446e+07
-149.9773729063835,-32.42393339030673,22.93116210357993,1.1065793e+07
138.03770968484037,42.849645293140355,26.753445950945917,1.2458628e+07
111.81346134110174,7.811620110148766,9.35966269128544,9.980587e+06
-2.5463311605091405,-95.06341896652488,1.465571945147323,7.215765e+06
-170.03339699096207,13.489820006183834,44.07226368527899,1.7730926e+07
-114.01025090626904,-31.664955220136502,46.349891057329835,9.047492e+06
-33.37482481074977,-153.31242097534093,-1.800488270805555,7.4017685e+06
126.81141443188966,-76.18377194553597,14.311157775329942,4.2706935e+06
-144.44882827230902,54.34285090382635,43.23258791396523,1.411505e+07
135.48813070752817,-55.722899965988944,19.828793936625416,7.2935705e+06
-49.67045969984284,-124.61074993738936,-1.7723345417122887,1.0074279e+07
50.57615993921729,134.26548145748507,3.4200071469445907,7.892642e+06
-15.383940548955223,-165.47878942309012,-4.3234480401071815,1.2225441e+07
15.775512860475288,171.3108003738788,21.695517490895348,1.2448746e+07
-126.83003954148772,82.09392594787573,7.108121136484127,4.879666e+06
-93.25295532585041,144.4797180390271,12.801196949616177,1.6057133e+07
-112.86930795132473,-74.00687205211077,40.841291073582404,1.213873e+07
-62.67888652292749,-119.91970128520437,7.501118738489804,9.28604e+06
-37.32080459848666,-91.75419202002813,-2.7427515535719484,1.2578205e+07
-76.71072350541981,157.78714069459056,-4.401437726610452,1.9418256e+07
118.1516753538598,147.5570690644783,46.93476585513879,2.6440874e+07
11.115534508184822,102.46524719528837,40.11243812438697,8.263896e+06
164.70114898883594,-40.185861264893134,44.26016672619891,3.071561e+07
-69.47068132314382,-169.09349939087014,2.740962149302334,1.7913164e+07
-135.20500493486566,77.9300685884017,0.688915958407483,1.5411354e+07
131.66194180773107,44.23178082721901,35.93706597191886,1.2754922e+07
-70.2692194238665,168.03967801576783,11.306199045967272,2.0574438e+07
-113.05295301101555,142.32421383650842,12.280988250693483,1.687213e+07
-54.1582868765386,-140.6711932122592,5.486981665048784,1.0788004e+07
154.80524601160857,100.2496150589115,2.4568931398222325,1.5163786e+07
-184.10180962444457,-4.340002788003318,4.351190492988024,9.198174e+06
38.02734449369697,146.6244057277516,35.179828823237735,7.775473e+06
-162.22314952251202,-41.026912110803835,1.3118320175079488,6.7901545e+06
61.72739664628,166.01911566738272,21.67246121354274,7.264512e+06
75.97999611585828,-94.22506126526748,33.371795214776846,1.0688838e+07
-18.397999661105274,96.82037480956649,-4.95603394822506,1.6699462e+07
153.0897300116781,-20.010326939658057,40.86920817677955,9.770229e+06
129.58499538951259,-53.17397475681057,12.347161320762385,4.164469e+06
136.57755572720703,47.347702561296444,42.521371134907035,4.305731e+06
62.22463640815994,-160.95741580729666,34.64291674241132,9.72889e+06
15.390556786064908,-113.97409204407003,1.2953248333707796,8.571005e+06
26.739354280178727,-112.50302107572061,24.006851655816433,4.968421e+06
21.768981918501623,180.7732336789191,42.05289485776093,1.7804544e+07
-25.079041086548468,180.40549349046182,12.602030884127277,2.2241952e+07
153.58419841608992,35.22778828276384,7.118551145262864,1.3292217e+07
65.14987952329187,151.78061072728764,-1.9192250170401375,2.2683944e+07
-113.3936762669959,12.984570626099185,36.12081556008887,1.239186e+07
54.4978247492694,-124.14681212806413,3.803441567557983,9.645779e+06
-136.18436325644785,84.09408798389279,0.45720507703993435,1.7123248e+07
104.3857901239338,70.03571498064616,32.7784184430751,1.4708023e+07
-26.213626517349468,156.64466741490412,42.38164686213129,1.1160594e+07
-74.61569755868749,-134.92598590253118,-2.243433533752799,1.6381653e+07
-15.931049924795957,-169.03335015659468,20.88350020431129,6.023774e+06
-160.66641453074584,-53.89998771588088,44.01592933007442,6.6779995e+06
178.73236419788947,7.385344635298395,23.930073847305312,9.54421e+06
-93.1835299892795,-68.601288027849,31.057596797187202,1.4640775e+07
-156.69396761305725,-2.173367509207168,22.211487631316615,1.2959446e+07
85.86241076333607,-98.43977221435982,15.481372761856043,4.719412e+06
-101.41955579413282,32.394082247444885,10.59954722689065,7.6578725e+06
-83.86544218607264,132.6809660086272,24.287081450057023,8.360627e+06
-18.552443252659003,-117.1590983819943,5.932651239666385,1.0005415e+07
113.26430898649357,1.1384060298476584,42.58031263570125,8.321599e+06
-60.08805308414327,167.76148990547745,24.086920960758334,1.285979e+07
27.89035954716618,-157.11380891956392,12.381892058665251,8.647554e+06
101.45436560516691,-141.31122572560344,37.042032815062754,8.902925e+06
51.434366216854556,-112.04620874184825,30.944020793294616,1.1228878e+07
-87.92049892921128,-77.56396525238647,27.60521977987016,1.2519203e+07
-126.01340594439083,96.60118766008173,42.0545069253493,1.1718448e+07
119.31904858882729,79.45513047211523,5.139212061448987,8.855954e+06
-89.41365039584848,87.4226813118064,17.949478271350337,3.9378912e+06
108.40234538988157,83.50053168369243,29.17018408664046,1.2784415e+07
-23.756401811668752,-107.73666683783176,43.624175218534454,1.0195567e+07
-133.58934136239955,-126.04808895856507,-0.5812869261864236,2.8195062e+07
-39.736469660524165,167.85478332606118,19.669003918522968,1.6022856e+07
-91.35898235537869,-73.18761568621368,1.3465066646883919,6.2997545e+06
114.7391248034386,-96.6144201558588,9.638030533591204,4.589749e+06
117.82626836819652,-38.08009586224915,12.349816647164367,5.794718e+06
130.50920592085282,38.271820092184555,30.136224823425206,1.457651e+07
25.55355071075058,134.54802423150068,3.5320020307953213,1.0668258e+07
1.4555893096914758,-102.52635712113691,33.47656361006625,1.1765434e+07
65.79833050678025,149.2705934031825,19.49146564042892,5.8006175e+06
-140.32104386983505,-87.27112699580144,43.704637253097246,7.504712e+06
-78.49874538685002,121.27832943280731,2.032857364722643,5.3668535e+06
-79.89876385239812,-116.27330687338002,32.24909841594466,1.203913e+07
-128.08650786776883,130.7120419504239,26.525488436108695,1.6323537e+07
-47.47967980507178,128.00153470320487,10.518011103295734,1.2110575e+07
-77.80569811987598,-96.07035532620291,2.2636909505741314,5.174847e+06
-7.5600227395160005,-147.53909541822398,1.7834466940388523,7.205416e+06
73.92454726766817,100.67683285847471,40.422578413535796,9.085282e+06
66.47468735266358,136.74526596731351,43.699830265513924,7.390657e+06
-70.41321665528648,139.6919003768071,27.30025497013259,8.591171e+06
-5.735817692091871,-169.2337900805314,38.222455779230714,6.152143e+06
-135.1368675805853,89.57781157471317,23.754721121456708,1.185249e+07
-130.38388299757776,-12.224157107291632,22.17707871339111,8.089595e+06
-147.95187601137133,10.825405435128573,-1.8488531007421705,1.5322737e+07
21.67213865995734,102.60962228631955,35.37702069014011,7.8615825e+06
78.29027237884804,-141.504802940405,37.91798151973934,6.986666e+06
-110.1380725441237,67.6239130658501,37.29822773226596,9.916931e+06
67.75683738186228,132.64488689160783,20.068828318945588,5.2670065e+06
151.4521044133507,95.78066774894836,13.7296670818439,9.508536e+06
-131.41654384836073,-10.697976004120676,16.132940679980567,1.1681316e+07
167.43156556988214,41.5654559724353,39.31135801560486,9.970934e+06
-92.83094409192145,156.92557663360816,23.649304133637123,1.2661546e+07
40.567825225789505,167.0275762127547,15.67624065394971,9.768906e+06
129.7027478002234,-113.67949195628731,-2.0239511773853507,4.790182e+06
-121.05977528068044,-54.40122192058768,11.077588720575992,9.375603e+06
-11.565869587747443,-125.95664794679865,46.845801811541165,1.6455572e+07
-84.66745685687363,-108.10252204869504,36.249068012398254,1.262649e+07
-166.64717037366051,21.201555857447374,7.91645211590274,1.1688129e+07
175.1996430767013,20.239307809214154,4.3583635557814855,1.667044e+07
-72.89573113320299,147.003795101192,12.042394719921944,1.5916957e+07
123.96936630426165,-18.314012891293032,-2.4633191449092267,1.0224196e+07
-86.4193598932018,-68.3156020156168,19.93301996529012,1.0177289e+07
148.00205404677962,-20.34976225180776,27.24131395689428,1.0432957e+07
-35.66202212839738,-100.57730741937156,-3.3207646097046237,1.4389329e+07
-167.98875309645544,49.35310695836935,11.67631235942983,1.4436877e+07
-160.70930178864012,-76.57684092419873,-4.684328069166923,1.9819796e+07
49.79255265367138,-93.31524713456525,0.3556249970670968,9.703932e+06
-135.64376699017055,-56.316543314605696,8.112232671374022,9.364927e+06
-8.97566963052597,-142.75950616819415,-3.880659999797573,1.4240048e+07
95.85387861637986,153.20537856998226,-1.7280592291319783,2.5622846e+07
-116.6547012359699,-8.652233149377992,12.257429627495366,1.0998859e+07
-1.9281151438394486,-166.78558459717192,28.556682544150576,1.0073944e+07
136.29963497511733,87.03317851803962,33.250247162376986,1.2577091e+07
138.257198228478,107.91239025118252,17.51232576870764,8.6346e+06
1.4268393785339981,169.64291400323236,42.84119550016242,1.5369985e+07
150.71708429132894,4.5431226615659455,14.464192915285876,4.0607642e+06
-92.57237697221785,0.3587615116403242,20.71796544558908,9.667029e+06
69.0163254143597,91.85341512987304,27.07372504855089,8.654165e+06
28.355375575400586,106.0284881077486,33.48611348774746,8.099836e+06
109.94270802057133,-38.596163597895384,27.694333002848442,1.2295291e+07
-9.13950475448658,109.43753701595551,34.81085249054509,8.532787e+06
13.664369211592344,179.3075696582062,24.908113688467914,1.4048823e+07
-61.32423387290823,106.4055003842521,18.537120415329635,5.639206e+06
-65.71833037371704,-146.22794726203705,17.89883002859411,9.762525e+06
-19.04632583612772,141.50271622959582,36.259156305565725,9.583543e+06
165.973196553172,-20.695993406003424,32.34680129484397,5.4927685e+06
-62.5136942634044,88.43684236415152,26.475782352403748,1.1182293e+07
45.27890136561595,162.93126272107565,42.45486326880183,1.1329082e+07
142.66892989259287,-109.73018433170378,-3.568821052840719,7.423803e+06
-127.4785396284762,13.725072111124092,2.2660888996420363,8.1565905e+06
97.34951339816496,-83.28042393668444,27.75596724286079,1.0368754e+07
-115.67432795851595,-119.68463437929265,-1.7637830101678904,2.3310264e+07
-130.32694888125232,92.87885881130109,29.27253486188907,1.198275e+07
-36.68622851003258,110.43606164419771,8.862644493972176,1.0080898e+07
-193.41536956280194,19.04221127712873,-2.168464228214804,3.21977e+07
132.64616688437883,125.59648874794745,30.30946849603498,1.2760047e+07
111.57987958920938,-27.900645110931638,-4.327198579742332,1.1947972e+07
97.58826897486131,155.44278968771266,1.9925350750221626,1.67173e+07
1.3671702643079584,97.16646201908208,24.33497451285229,8.685404e+06
37.786698475202314,120.5387647254152,34.07915016252442,7.6735555e+06
-50.13342445696313,111.16771512149516,11.455168197459916,8.985323e+06
-21.31460959309129,-174.48278069168163,38.717357785937715,5.237823e+06
24.39751369315468,129.5656895689189,20.446294907658093,6.5715095e+06
-99.778553576912,-46.792811209704325,-3.1293215158060543,7.326532e+06
-167.31505480053133,-36.68677416585484,43.162188015414614,9.299003e+06
32.59553867254618,-113.8966398923416,21.733038242726742,2.6566065e+06
-55.62068318192269,-95.75095811915966,8.57793231041752,9.354831e+06
109.14088908850334,-51.25470101518466,-1.0194336799176957,9.39845e+06
109.70623526531438,-117.60556295524074,43.05272037361174,1.6941726e+07
101.66514118697904,26.686929904367418,36.81090977296025,1.6425383e+07
-11.704814492390767,-140.45523173597903,12.01472661626843,1.2446808e+07
-53.8900258888109,-161.72746772095365,46.92436006310607,2.2601446e+07
131.5176460292467,-12.896455907546224,27.999827113711845,1.2675894e+07
127.10301892114842,-80.16637996229589,22.926746738974266,9.172426e+06
126.9852400877603,-100.68945608944921,6.508730900693767,3.656326e+06
163.6913462154352,40.87735813137883,35.534794576885396,8.80586e+06
120.60184519527041,58.15696313168463,36.570788135815086,1.3397205e+07
45.75716756269216,130.09519164531298,19.23296936568139,5.535437e+06
-177.71053459019,-48.44590234881747,7.052004001021973,1.283651e+07
58.996737894805506,-88.86607731114763,1.2995230806083795,9.239793e+06
-0.6513325122271851,-155.73039364760882,16.321751537482765,7.8424585e+06
-28.96152275639903,133.20408081532162,43.09121433816213,8.590123e+06
-41.639057243989924,134.30753415191788,22.920645329008373,7.7762095e+06
169.3344122869243,30.092066609506727,45.39015889818666,2.77763e+07
142.42420980109614,-19.280903466173356,43.09770328868565,9.421106e+06
-168.821443751695,-40.279735508112026,15.016122074049646,1.8225844e+07
-32.36260114422342,-148.97899263962321,9.223568980361069,1.4134352e+07
96.7320575182701,-55.20425439182236,25.487641117597903,1.0019934e+07
-27.43412739878823,-179.81156075230382,39.38872160765227,6.4098865e+06
180.85743255224435,-50.958110813648716,-0.683581269993457,1.5143527e+07
-124.30314046911657,130.6224673547497,34.58501504085548,1.5235092e+07
120.8218337813487,134.90119046722594,45.10304045727241,1.7649304e+07
-87.69713114798266,132.9488089937688,4.484626512636661,8.185379e+06
-181.73230021962374,-7.585779092961133,-4.344131557120682,2.6768944e+07
121.28694664202402,-27.4078556650374,16.792366426692404,4.077574e+06
179.25516708276763,37.544622616415126,37.78591826550144,1.2541165e+07
-106.18811364518174,26.265914617395623,-0.14123849576158587,7.918555e+06
-88.1504819140336,85.88158645047969,-0.08074311738652028,7.4689705e+06
-97.59610699733234,121.34069574005154,-4.25206500184985,2.2937024e+07
134.43167505603492,73.26457906145333,33.919266125488925,1.3020102e+07
-99.89779799936986,-91.95168532171638,28.801949803609887,1.2020091e+07
27.177885698977548,117.60999114761815,31.48909054157031,8.074835e+06
-112.4576654212031,44.74849255462138,20.87922511611348,4.513092e+06
-82.47282100887902,-120.69315942956975,2.381556216616908,9.231517e+06
18.084237657979543,-178.33308784272577,-3.3650833944637326,1.0129016e+07
124.90384582075824,107.82238059512281,16.822308443107463,7.6612635e+06
87.48083385893534,-56.04301671931483,7.770756430775544,9.883051e+06
-137.03274778599538,-53.8002067125773,16.460180255331164,1.102323e+07
-152.12127969692605,-67.61206359930364,13.515300371986605,1.2413523e+07
127.79382440442208,-136.77368196816903,-2.677040893170796,8.711779e+06
50.25632094379282,102.53850994705078,17.264714790824492,5.0979515e+06
120.88151889808303,-123.22890096479844,22.068543937111244,9.721084e+06
-117.44378578080918,-94.41260018458068,27.585162708827685,1.0449953e+07
-109.40139826021905,-36.275765807374285,39.95673933703894,1.4206923e+07
-130.5530464769178,-100.43802976963242,39.145037363030276,1.1520608e+07
175.6280376092633,-15.252439523411795,4.831856692969416,1.472054e+07
-175.38936449016362,32.484213810735696,7.0351795940737265,1.1575906e+07
-92.80092093577315,-71.26975862151488,35.47148575570647,1.5661463e+07
-164.8357551251277,-62.499521488695194,11.259221535326887,1.467016e+07
-138.80845836217182,39.31520099334537,15.510236087250977,1.1210979e+07
-153.4410868041987,58.35216994054713,30.3473486849974,1.1741609e+07
126.3809653879638,-118.21603676429481,10.685819165987171,4.6242155e+06
82.65502679347668,48.43123623845443,24.67192880796981,8.31507e+06
-72.86886859002068,93.82933145812575,30.74656862420806,1.197449e+07
-26.717953207205678,-145.58861346956476,46.18562179991916,1.6954894e+07
-110.9408367005119,29.96806907517987,14.895857947430033,7.680987e+06
56.53455413454111,134.99255652446737,14.403515776184479,5.3891325e+06
-153.17455391489543,-65.31298447778582,5.468128300359522,1.0639187e+07
-127.96174188549361,2.0454055843540004,-4.3594173181136755,1.2943004e+07
-147.99454760835408,33.0096019702396,19.76429405136097,1.1863969e+07
-173.37968867639086,9.953207584677813,26.123535317226487,1.5503461e+07
150.87263462186712,-57.562468921007024,29.30130522218839,6.5623585e+06
-65.80417984826221,122.29230850757841,5.256379836880172,8.619915e+06
-160.2541543130238,-87.04411042694358,17.959308092646424,1.3060483e+07
-138.23642578352334,-83.38949047670852,20.63429377883549,8.463433e+06
-40.44572285567335,156.46900611574648,28.23762913063871,1.0572691e+07
-3.34631956144139,177.30246596401304,7.176929752399652,1.6275319e+07
85.78008587113021,-136.15686242666072,3.114962246462326,7.6997495e+06
-158.8226231018588,87.50854900007403,10.504484616994256,1.2682241e+07
-106.63650272409164,-16.252325210825035,-4.600299261697348,5.2971155e+06
-25.035001826612245,107.08902820475987,40.70643657700151,6.712933e+06
38.745217335490025,-177.36459057433183,-3.855094245824073,1.4259615e+07
140.59734463176596,47.61459356625713,-0.02762315866724235,9.713542e+06
-76.21977308243362,121.04276101550157,34.66293169814546,9.922614e+06
152.6847620167565,-80.96087930675458,21.93232058541506,7.9194475e+06
-131.49481161151465,-94.53757081869996,38.68889017916453,1.156183e+07
-83.52029361195025,155.84354812483826,37.29885795921631,9.180769e+06
-41.629368755768155,-139.76945804208603,31.970837477918934,9.774481e+06
-99.67457190457871,35.77969266781963,6.007366756770992,7.125889e+06
-131.91328922052668,-94.56681653528354,13.66358989049584,6.0063235e+06
-112.76932830132415,61.83831980231713,-2.5217631697387537,1.5540972e+07
-119.88468270389818,35.47952872890855,17.893882179587678,6.9357e+06
-153.0498394474207,85.82351905290909,36.0303416619863,1.8896288e+07
-38.85331370248784,177.54611977726478,26.09565513537208,1.5262515e+07
93.41998258955442,-66.85010765175318,0.727982587537228,8.708555e+06
108.40629208046295,114.79453525769287,43.481923411142574,6.969475e+06
-143.01616986264384,3.9415274217336393,-0.38130233851018375,1.0554149e+07
45.627498388840195,-139.2938231421109,24.61508688863674,8.910404e+06
93.14623244584726,125.62243072524916,24.854641535071014,8.597615e+06
69.22975059608609,142.17273124237056,43.74795050509241,8.274087e+06
161.03236291747373,-43.935440841253694,34.6815362387042,5.383465e+06
117.28363357270581,65.12898517433729,3.0251056594602357,8.1571055e+06
51.44338176675265,92.69686351098261,47.13637053723634,1.6573638e+07
-158.01273179538026,31.423212587029152,3.5890160858186704,1.060424e+07
-107.7473979455871,-98.13204045429535,11.704523816108921,5.6594195e+06
-94.45035919856343,136.24297234413035,6.918322305968026,1.1368442e+07
142.25827890514188,-71.23511485222286,28.610703925964298,7.607193e+06
-183.51679947359804,25.454786900175947,-1.243032189671178,2.7386632e+07
-167.30939498729592,59.82730258602869,41.15401676720049,2.229099e+07
90.52412821154553,-131.3420672477485,15.672168288747828,4.4038335e+06
105.02817609687094,-92.66556920186306,46.50113503836633,1.8910402e+07
95.9801048299068,95.27720824877059,25.665051001565466,9.334373e+06
-127.21753908659225,-93.53381727031538,8.774849070513923,7.39905e+06
63.41157407499123,-136.61817328538012,-0.5203243108629015,9.791356e+06
-148.5650068405526,73.38161478212334,40.10107319205683,1.6554661e+07
47.53479743192335,105.71607762234498,2.3928498610865434,8.167358e+06
128.89791473909452,62.10575443838411,40.933585278175535,6.6115335e+06
130.3433478441321,-108.33067779149114,2.5015063842367233,2.822614e+06
-164.71956544318567,-79.03906423641925,28.137696513106413,1.2050612e+07
-14.399954249600682,-103.7738395355444,41.78771206802853,1.0665887e+07
-95.95509582700177,108.29083529799101,3.7977668853053093,3.8837055e+06
114.23436129467625,-21.97395123845149,45.73359541294364,6.9495135e+06
134.19550151477517,124.13133413602452,37.96475438482883,7.026954e+06
-155.5354069501638,1.5202542078701526,16.10357947385378,1.5905809e+07
-121.25027345006463,102.06969531405889,40.15988686312395,1.0985376e+07
-98.80849634323559,136.07091485475286,33.41400099452473,1.0758953e+07
-151.3380732495152,110.84826844048285,-4.981193640051322,4.8683036e+07
-74.79163171509566,55.171412965041974,-4.271114811641829,1.0555854e+07
61.24331363708739,-118.87384568348551,4.282443544346874,9.434923e+06
-64.24077381614586,99.54967451857385,-3.369753201402219,1.2359717e+07
169.81754878203168,9.705680706239491,28.334011706949347,9.899395e+06
103.5854586571246,-52.42337383901216,40.88991476582104,7.7841195e+06
-87.30460346588389,-23.063202963426136,45.21555537940954,1.2322096e+07
-114.65377126203249,-96.88936836641292,2.060064443885693,1.2061923e+07
-143.42920077104105,-107.0660690220826,23.587518872390905,9.451932e+06
154.36028501512942,72.74961621332648,10.603846877292995,1.0667413e+07
-147.96108900144608,-109.66831019173809,11.155133750643294,1.0939783e+07
-105.66321024632046,-4.597632469375583,26.090732943519047,1.0083642e+07
-110.27049634517824,38.72683067161819,16.891862223685656,6.0767495e+06
137.2054195050942,1.9313298441607003,-0.6668861230066563,1.1234699e+07
-112.25954435944278,57.03583794768161,17.984864694082503,4.841344e+06
56.043845176143925,-104.12246028536586,36.113158478687765,1.0999959e+07
39.28468568844653,89.4012468535197,-1.5971146426032077,1.2506509e+07
-33.42170328529846,137.9377088162649,27.080023002483934,9.113203e+06
152.20690680985336,66.91449350353093,13.94265502168742,6.149874e+06
-15.230407008458913,-171.72999426049023,32.681832751081934,8.661e+06
-98.49483200264197,-79.58223112986329,7.27620982594966,6.1200805e+06
68.53358059210223,-102.18349194103995,9.831247092522725,8.905841e+06
63.84378674873295,-71.10797807070193,42.960552979706804,1.231752e+07
-80.58309705719888,51.73026218132429,42.50511922727541,8.052739e+06
26.343792830526922,-164.59203365773254,21.519289140346817,6.5893455e+06
-126.38318876292067,-34.724567256206655,17.64293506897097,1.0418748e+07
-10.500369114482794,-103.21028757053855,40.91153147789564,1.0977769e+07
-57.03818921356341,-157.58637975444873,8.504179256210229,1.5596536e+07
-102.24864558280275,-65.89625030108343,-2.0092171680328956,9.642988e+06
-88.44174467171118,150.01540540471615,33.701990444011145,1.0170622e+07
5.595330022104548,-134.98690313672995,18.4271884287854,5.2342255e+06
-45.29650545199297,93.04108893448085,19.219680525342397,6.5565045e+06
-178.83771109711256,-24.250013179297582,34.48190878851552,1.012423e+07
-68.63068440271772,88.82727539308502,4.045133293301411,6.021993e+06
62.893402645988495,159.86054694776317,26.58613568521175,7.798476e+06
-79.70372557217655,101.44861233973636,10.281971861888486,6.7113305e+06
-93.25336506161736,-92.45815879552003,5.069216712350518,5.5961485e+06
-136.297003315675,-110.02004192494512,14.878963339948129,5.346061e+06
99.95863016090436,79.3370596786653,47.28082372796067,1.0230021e+07
-172.64902286111533,6.987053902993181,37.55123456579148,1.2912911e+07
16.91612680458644,-140.50763471745742,41.04141485595179,9.750764e+06
-164.16392535326793,49.20978986825148,0.6356205019657573,2.052615e+07
-29.60490228171278,-170.12879134776585,2.700816330818449,1.1757205e+07
143.2815998188455,32.20084309149084,-2.081530068433756,8.959337e+06
-151.3467563808801,24.7522022336384,0.03656772722352292,1.4646464e+07
108.64232435331338,16.226470752300997,14.386163508296754,5.3533145e+06
-80.60381998446529,48.641950622092395,-4.186611566015145,1.0227709e+07
-116.65609000886742,-13.234408241157128,19.23210344464729,9.043873e+06
-53.933456367153894,-135.24339640458894,-2.4377715125560933,1.2458104e+07
-145.6694742657096,-112.96822305530014,21.572137703056114,8.835682e+06
-74.38853543909553,166.30804366486814,4.660869075226762,1.3755851e+07
160.74998205037997,23.526164651163185,-1.230234986612068,1.3111559e+07
48.98461039606369,158.88244323811568,3.213012140343426,9.261436e+06
95.10864630107727,66.17636223708399,41.313969872220916,1.2175416e+07
-52.96188590510772,174.57712545011935,31.040910612668636,1.4093034e+07
82.8618666635316,125.87873865311481,32.99996522237388,8.869409e+06
-101.16459680980859,68.23088926001475,20.469572450155272,4.1828875e+06
-91.91594250968711,160.46834276928337,5.160687941680954,1.4250746e+07
9.55826737254165,140.74812959634573,0.5410741682471817,1.3618907e+07
47.43344590683827,123.3450468350661,12.542045570322568,6.085234e+06
116.64888444456614,32.01886505468826,25.88988285472046,1.1907435e+07
123.92564992217602,47.22623162622588,35.973758509001264,1.383108e+07
-145.3660181606538,-37.97913320890038,41.66072898092092,8.522765e+06
37.17281805502219,170.49960203752926,42.442388952162226,1.4009464e+07
79.80271779006875,149.97672119931542,12.290028410702732,5.6843815e+06
-59.746310343937694,86.57383086936937,42.15777429075844,6.4857845e+06
-65.61450514639836,89.43738666653888,32.617126299401896,1.2055319e+07
-132.41526887027658,-125.10585644565771,44.47225753029452,1.4861937e+07
-173.1987036310829,46.702619257594336,29.1851504179664,1.7930504e+07
-89.92125845882626,-54.54768918929832,38.41101425996657,1.557336e+07
-79.73953699948053,-102.3186885496759,0.23377672001106212,8.774104e+06
-118.53611391496624,24.06315148519215,11.90535888179754,9.572104e+06
-145.98613394810172,-54.31330843517452,45.352659382898985,4.813794e+06
-86.43097532702737,94.35416976112026,26.076088949819066,9.169558e+06
-120.09765018553406,-139.38176108161846,21.372017592253624,7.444117e+06
-89.61589377766441,55.26773371476139,21.02790360620177,6.208562e+06
-94.17115134183743,-139.72252834716727,43.027129957837566,1.125471e+07
-149.60278918471,8.984613863994355,16.80686980963108,1.4292127e+07
-149.2027157072039,35.14107231981876,-2.084354388912266,2.1172466e+07
-131.8774284091555,-30.453023440313984,46.57603195450071,6.7649385e+06
-51.10717629377995,-116.33015912500922,2.8117843198617605,4.4855775e+06
-140.4401202023924,106.59873080219654,13.934847251593808,1.4579562e+07
-0.47185295057636273,108.71885028410304,8.237147298983412,1.0245261e+07
92.0921557043464,21.300540051722237,-3.7417569637888226,7.5637385e+06
151.7311256169417,38.58425561328113,5.282668000920811,1.3951464e+07
-98.78606676435733,146.6279514297354,36.05333312340135,1.0262669e+07
-8.26075666755105,149.32869092435868,39.25797211865373,9.333995e+06
-114.23082217320699,-104.96864590198176,25.706874218183874,9.163624e+06
-109.21129125997075,-16.62498496027669,45.14929476613371,1.0395954e+07
98.54787305946246,137.34100475520194,20.253370132335387,8.762442e+06
140.88749011019274,94.97003346888158,10.01058249408548,1.1427198e+07
53.758043600111904,134.3756907892078,34.07835415021995,7.2221345e+06
-79.46644399628772,122.7853653254417,41.91221655143437,2.8256075e+06
-79.10757076751635,-84.64716051414598,-1.3294543374518049,9.684511e+06
38.926141248768204,-169.59868883828824,14.560729993589383,4.92606e+06
-122.47717678496026,-100.27353015107052,-1.7176569703892015,1.9496416e+07
144.98935498351932,71.01995913200386,40.76917520547668,6.4164675e+06
81.00411041119963,-124.45131587697729,9.633216914802732,6.939017e+06
-65.35329971337353,139.9466512301621,25.839726171781898,8.185933e+06
64.30826188025878,-152.26371972182187,23.578625735766348,1.0374008e+07
-128.993507028752,-84.22688374294319,43.31331284862186,8.0101735e+06
165.23073054609438,10.562995272447893,-0.3492689699880943,1.4725972e+07
-124.32334020021693,98.82225341581085,35.75595226417934,1.2654021e+07
148.09883926380894,23.86695850158293,44.881156000031744,1.3039728e+07
160.68550358654898,99.29053713478339,44.088046304780704,2.127915e+07
-101.58733992866868,-139.96332195718648,17.061474720968114,7.536053e+06
-102.76234792736463,-47.2017462062845,40.9081163321108,1.3877406e+07
-131.02272924049862,119.74104076935747,11.729636299074858,1.4119893e+07
62.3509408999501,128.13920697064447,38.458196894848726,5.0265675e+06
-130.81054830991815,-55.87921852800747,29.971847873809033,1.0282346e+07
-81.9827820564471,-54.486042437880855,42.564339157307955,1.2685137e+07
-100.90009190683008,90.26795698829505,1.5769413215314712,5.708921e+06
-161.92250207876685,-84.26001322694381,29.96426920561395,1.1419885e+07
66.80975978395975,-82.37291980566238,20.48535925334335,3.8593782e+06
11.622241723290728,111.6161254265262,43.57993730547441,1.1281468e+07
-32.318523762963196,-149.79925318626871,36.32501093523965,7.675763e+06
156.51492423664797,-31.905719778890784,15.695434936595072,3.967761e+06
-145.83843298345073,38.2456568131571,28.702739961760443,5.419339e+06
-76.50753516149481,-147.2556083383559,11.818447232851728,1.3097506e+07
-149.36389572828568,46.04959073010235,40.59121147311159,1.3608581e+07
-138.2638276888342,107.27923815465716,7.16767032150413,1.0293287e+07
-17.96989692242144,127.49846218154221,42.71842687536348,8.44747e+06
-155.11495393196213,19.081182259958553,5.7774157303435745,9.526864e+06
-69.65107731884547,94.55886827091501,33.42459910843062,1.1583104e+07
-110.22169692080554,71.5487850219165,18.54646374531303,4.8391115e+06
89.51221590472682,-48.10515118054121,32.75715406587017,1.3273007e+07
-24.115821367621493,-100.84359829484191,38.94218999492597,1.1324414e+07
-45.8842716307243,-104.19922982817148,26.735817704244376,9.918496e+06
99.8551830022925,-36.95002204485459,29.16627401709177,1.2902853e+07
22.1608817545401,130.77924261351075,0.7304831221099904,1.339906e+07
-22.413961913177076,-128.27848161358946,23.926806002367922,6.4474405e+06
121.7279425485147,-11.449536633896912,1.0981308977083748,1.1174619e+07
-161.60674792364537,-73.099378543015,44.549072005070634,7.6821645e+06
-12.446005167547412,131.8926241897188,20.085116356365983,8.146804e+06
-130.066908853742,92.67149500707586,25.0035977061121,1.111009e+07
128.14806255696288,-68.10008442793477,4.652374330948326,6.6852735e+06
77.00240605789872,139.72300335695593,32.66782397726864,7.864761e+06
-71.05315469788957,170.194659245749,45.97816668366414,1.5814811e+07
-183.4154214692473,-6.5476489225925425,42.44236994735132,1.9065008e+07
111.44528364570651,45.25006346712104,27.611917058282188,1.3199897e+07
61.076824246240115,-162.20320999158622,3.062463420692734,9.855381e+06
-135.11578324890382,34.4682766484452,1.6537768198986296,9.890237e+06
104.47895095366361,101.92863866360754,17.226585479464,5.397773e+06
103.72268318367969,96.00331029242602,26.08504912756995,1.0080682e+07
89.59786165744634,100.06679302962584,21.835070691818654,6.139786e+06
-173.9293271920986,-24.809444803713063,24.217443321272313,1.6989472e+07
110.57307946578925,141.6031766054225,28.419097080469477,1.1720901e+07
-21.94095740077003,-101.78729366922789,36.50384450353647,1.2028615e+07
98.89194333253681,42.40278471538352,46.81148221093298,9.221576e+06
-69.95232261749322,135.39209609718455,9.193590599759261,1.2910877e+07
-114.04374040677729,-14.22298021628481,7.333544492100519,1.0118339e+07
107.01611844625154,-87.79212963543995,40.30148623971605,4.573787e+06
-166.44171255635314,33.29404094597069,20.836233664412276,1.7118256e+07
-15.579493151183444,-136.3101787920614,27.107913500746506,8.523205e+06
-161.61572318389457,-64.9796502215573,40.571556988884275,6.9898785e+06
93.80995323583642,35.77012425722859,41.71135665781077,1.4608189e+07
9.339982197919028,121.1584558292301,-0.11104944684103944,1.4141862e+07
-99.28548842230857,-44.06885837406301,41.338407236925676,1.3707388e+07
102.32909209241984,101.10926459663453,30.88116233605602,1.2039034e+07
-100.19037491151312,112.74729871404674,3.228856860157679,5.1949825e+06
120.7896963952777,22.14480896814254,8.542995556120408,1.0761125e+07
14.230202167743755,-119.45284306656067,6.387564577212714,1.1262917e+07
-146.26725624047117,77.62014920119304,18.929510489297872,1.3723288e+07
105.04777148175187,129.59718424647298,1.4647783084895976,1.2104684e+07
128.5508192348911,62.008716947767425,46.661725130698436,1.1265716e+07
98.82148178946295,43.72099842095372,31.70618384994811,1.5608835e+07
17.631161663071452,-138.37279899847047,26.233675050214124,8.996915e+06
-106.66687500340623,137.2371786908613,44.74115219612867,9.649701e+06
84.95180430955884,-83.33457886001527,27.499008884675224,9.934133e+06
-105.49001550595757,-105.16454808024811,23.55530578376717,7.9807105e+06
126.23276824942808,133.61868329724388,42.87293361783704,1.206822e+07
-69.76430727784327,133.21882295892198,15.75246634685691,1.1513616e+07
-41.03987609539507,108.12936128178347,41.23761504196147,6.002921e+06
-78.60078864260132,-72.84039849553734,10.961825001940134,9.340689e+06
-86.4185957219321,96.87768098179515,-2.241040114332898,1.207679e+07
-51.795163900132714,-170.3840892312286,0.9694149576460234,1.3334912e+07
-177.5419109253586,26.875090816303697,26.76901039980542,1.820333e+07
109.4072443023838,-107.1837675083989,9.020749192401546,4.8955595e+06
-125.42572477213723,-21.057943658121218,24.279008877625536,7.7154715e+06
-102.46653962973005,-89.28062526431813,14.89173951811453,7.110494e+06
135.04827181139422,-67.22813610619616,-2.2811214761076264,8.121865e+06
-86.82763544835801,-66.86219137815547,29.553639170780954,1.4149774e+07
-58.18728655612313,-101.6327548310004,36.39318365741428,1.2695535e+07
-151.44989041764768,54.90942014740011,26.233506091479267,1.0576561e+07
95.1555476724991,157.25701035234414,36.042029757790736,6.5334075e+06
-105.36715860065463,76.37290314883677,-2.7492341191414975,1.5794848e+07
-88.33467446185605,156.68012488602562,29.753643602028262,1.0572585e+07
-125.44356580373956,-118.47955694572278,2.049996752441291,1.9587018e+07
110.67490193279161,-126.99434034935585,44.853855254198116,2.5271954e+07
17.733903371593527,-104.93687972210792,6.7374892364232215,1.114006e+07
70.38837990509671,-160.09200529127705,5.129801063044701,9.308658e+06
94.55565003978393,53.91796795778041,35.514270625873,1.5945019e+07
92.43876853331375,120.06561159230779,25.367532692485064,8.684509e+06
179.144346798375,3.24318904935933,11.779473051408367,1.0899516e+07
18.578496022376726,-108.2934277201617,22.278727495483714,3.2430982e+06
-78.4767277098628,-146.50685797471752,31.346745574916785,1.0187501e+07
-102.63296548330322,-135.8821876268772,-1.2595437009516435,2.275533e+07
30.469096755851865,99.7405129433651,31.519727805252593,8.27566e+06
-111.69665869339096,-84.53339436031327,35.48641576720777,1.4073703e+07
-54.98912949214497,175.17634904961244,21.508646426212273,1.6850258e+07
52.61718208158342,-171.77440407522622,28.04188307490234,1.3296555e+07
-151.8948297952848,73.21149795463361,24.017095424064124,1.4242754e+07
-127.77985533523291,5.414520661916811,-0.2815813281837798,8.681737e+06
169.37536162248705,-62.950701011604906,3.0112471287310196,1.0568086e+07
2.8634151688964664,146.2544190000135,3.1623311825414278,1.2101482e+07
102.07229884437542,2.7255544280291417,-2.280364077032155,8.708513e+06
149.8532918988925,2.603340189714629,34.190305609631174,9.039811e+06
95.48818685195772,-125.7898419750803,18.262432287479612,6.0953605e+06
120.00723869761612,-92.42773292348319,10.269417999886242,4.117752e+06
95.01535852739465,133.45598066711932,6.592549863040849,6.1922225e+06
117.59883050120175,31.22359205825842,41.42108811088001,9.244232e+06
122.18799160343008,138.24407295674916,21.636887014891172,1.2969926e+07
81.42906606539833,-82.53513981137192,1.014618176703317,8.49073e+06
-136.4314985006357,-23.350936963975187,9.376152256470123,1.1650562e+07
162.23363979276417,-11.885006547011557,27.96067272910488,8.963161e+06
178.61365133348556,20.10900042831682,31.87995751587634,9.618715e+06
-141.39091971048452,-86.49047058323873,29.17462153358069,1.0443872e+07
65.24292002605483,63.78806521883018,42.192325811757456,1.5636597e+07
-149.61385913038941,-95.86820965947962,4.970886558073758,1.5683567e+07
-131.51861761943604,-86.97955048527581,34.200119038248765,1.2317744e+07
19.775088491161,157.81378699515534,21.55143181058134,9.480918e+06
65.74481706917805,102.92544266045451,7.52762604338726,4.0123912e+06
-125.97700220444273,47.57463821568729,43.003376342734946,9.699066e+06
-89.5277943853213,156.27748066391024,12.724711951485261,1.846343e+07
-92.11537290770985,135.62166746497508,23.49567547030349,9.626595e+06
-29.684092914729685,-126.09579922222905,45.20710345765606,1.1734615e+07
10.537476986258014,-102.66494976170728,46.63039722411995,1.5520873e+07
-179.44841860858588,6.581169296920734,22.219416596954392,2.0925146e+07
104.6383498060714,91.20708512799763,2.151077121245749,3.9252088e+06
-98.30928185240393,-88.99245703076595,45.42225984252185,8.07895e+06
-102.53402487497469,-85.88953171142305,28.51164405139059,1.1998854e+07
12.82600257981997,-102.24665797617733,44.68046253662641,1.3122733e+07
-81.05251169591479,-132.51604283362866,11.52656143638977,1.0672176e+07
78.40780361375926,113.23328733840623,20.540770308825213,5.3431885e+06
-154.07007150335107,101.70272482309485,0.9215318051879159,2.4904106e+07
-78.41340983468265,-159.4365048227204,29.215836127237203,9.941362e+06
96.49826733605084,-144.3713578766819,8.419806230812434,6.4831395e+06
151.40860559261006,-16.61198899901123,28.469341837217087,1.014111e+07
109.48546926859261,109.10870005442071,36.87554988606602,8.90145e+06
-143.71807139597558,75.0632502938144,3.665339241388459,1.0516986e+07
-111.81538702210725,-11.695857493985699,44.86425054918046,1.0260377e+07
-4.658631167639527,116.26964060856317,-2.5061455568855746,1.6016411e+07
-119.75611266466215,46.40423182973166,46.450061922094534,1.2175905e+07
-37.696419153424756,100.7330433702334,37.46839047620633,7.666218e+06
12.378543587199886,145.97615021129064,9.540880976992641,1.220171e+07
78.70027434069004,160.6996139594283,33.88752456470973,7.790093e+06
-29.252014887065595,-170.08227400223487,38.80151468210304,5.1330805e+06
46.49619291570147,-114.47489254662533,3.773559406974501,9.862892e+06
140.43762693304507,15.352948069764011,14.574131863167493,3.8329058e+06
-147.25887359915112,103.45570356416795,12.333475893123353,1.4172954e+07
-162.20328671006104,-64.53465794301425,43.23683598711989,6.8272675e+06
-92.86682128508987,144.11131101208542,42.2007142883708,5.412443e+06
-74.83363085410177,88.1764779960011,29.91106159558406,1.2037081e+07
12.988380129686448,167.90464377548233,39.52652662073629,1.2914289e+07
-95.43203556825102,79.83998831910174,21.59528594699113,5.3202475e+06
107.68849296077616,-63.594336265722426,30.577797885590833,1.1377161e+07
13.699812424461157,109.41920712139506,27.008757937486322,8.1736745e+06
-134.035882181736,28.280492957916973,42.57720768059451,1.0165212e+07
-15.77987071669287,-152.45045410068593,-3.2867640923667145,1.0704554e+07
40.97378458424018,97.27120285584306,22.41430724259921,6.0166645e+06
-44.65562102012143,169.23836892718896,37.60617984116415,1.3383183e+07
-94.70624060894023,84.73090720147053,13.564421954507726,4.492088e+06
-142.57094096813114,109.32386096768806,12.270776924355332,1.4276448e+07
87.87218833631783,110.35601680113787,22.31420221421874,6.57675e+06
182.00232354780843,-28.91858565900173,15.482177400165924,8.562243e+06
72.9747170757775,-102.78303516795515,27.620464220085235,9.765063e+06
-130.14657031411048,-72.31673029692959,9.326774130861187,8.110422e+06
-128.9577801480944,-45.063531723467236,40.27039568746727,1.180874e+07
-10.139204393802174,164.00491124773862,8.863354972100193,1.6543002e+07
-19.270709768758365,102.85577226169755,21.759090261232984,8.066804e+06
-176.108912561872,5.710764134838797,22.46780014782456,1.9477528e+07
-122.6451980712187,11.89854269858165,5.059963452520812,8.785807e+06
-99.73199545642042,-158.92620616319311,46.904333410377745,2.5044638e+07
95.3440080121922,-139.3425428750537,29.63139553543538,1.0916089e+07
155.8579587647052,-26.624565302835578,13.482539828425445,4.27236e+06
12.190038250287358,110.82396699827359,35.51653629164355,7.6102815e+06
122.61330105368387,82.58104743180894,7.698776823454763,9.671657e+06
155.8456544347627,76.21222938287644,21.38203564792513,6.477709e+06
-133.79619370481217,122.14911751843056,37.08942972734122,1.7034576e+07
9.417009280801238,-163.08922530496454,45.694063383277204,2.0547824e+07
68.25286573050488,82.41599660711876,5.656454495240103,4.871212e+06
34.416529487513486,-100.99232450870956,38.02766744483883,1.185282e+07
6.595882397749477,-104.98727553178276,43.92299674689964,1.2247648e+07
-152.64107962832526,-11.00431313550493,13.107851450541563,1.5138968e+07
-9.61264452703628,103.42068807863956,46.09272920558862,1.7397158e+07
-121.49120076564319,-0.19861645112104043,30.33335558621874,9.32119e+06
-92.24950998184357,-125.61876807814723,-3.6063182407314036,2.2283264e+07
-11.519303233887399,164.32540177603545,12.868753243184297,1.7432448e+07
-136.0822416703288,-71.63115174605593,34.721769579803016,1.1571009e+07
-2.9243561837423044,129.65411293178215,10.360855484639831,1.1788007e+07
8.141088450080105,170.76289165478966,17.296599690620614,1.5145431e+07
-15.654080763395683,102.4790778878949,23.51353737744747,8.812493e+06
13.938884228844813,94.26005399035245,44.80663222073645,1.5690737e+07
-65.17567990102827,151.07558278854054,39.92809500416512,7.251589e+06
-23.14516092893041,133.4235207216429,30.57371494697128,1.0168863e+07
-170.23490521961912,13.190087333346895,42.63018468467027,1.6810158e+07
80.62211118905691,-109.33278897494243,3.8741615029547765,8.053698e+06
60.8514566974436,143.41640270348017,30.956701045061294,7.76314e+06
-24.198488676342123,164.27271565351157,4.040709093540115,1.2875375e+07
108.91403260669028,60.33077075834393,23.600125643885654,8.508149e+06
-66.5239911730242,157.71497334564162,11.359420913707773,1.816649e+07
70.90787955175989,-91.90474255170216,6.443693966703441,9.64782e+06
33.50941709931439,-139.42859839800747,13.506178531406304,7.4890525e+06
-83.18752731299001,36.92065572249109,-3.0340611127420414,8.1255915e+06
-88.84472064989635,153.25037164339847,22.932304043410422,1.1958332e+07
149.67891183121827,65.38949317728265,-2.247917412025578,8.755151e+06
97.92048688669746,-45.041329760355666,25.520856623054666,1.0316132e+07
-7.472005850730255,-147.7411610440431,21.904986915928543,5.1050105e+06
-107.52589645163799,78.52150009712358,17.18561290948738,5.2064345e+06
-143.3648978845208,17.17182546188502,24.929135138212285,5.8238395e+06
141.3944314606601,60.13478216929724,10.129869185269264,1.0176359e+07
-29.004505463002143,180.23422758616914,26.073531957249944,1.622671e+07
-151.79146210791993,26.29965408758164,15.510478828488463,1.4384995e+07
186.78226652926264,33.717582539370085,42.823022881766455,2.9906136e+07
-12.702566555122758,-102.92917208107504,12.342319438037315,1.2014509e+07
13.850964215769892,181.9723514997545,32.790176858166284,1.6234946e+07
184.27485519630198,4.260736241856478,25.408482519931617,9.870504e+06
50.14876239346413,-104.8001284718759,38.21144633349738,1.0777016e+07
83.9460981009916,-117.48045573394963,34.0996051230764,8.697876e+06
10.794291201723894,-153.85394060610292,19.449653570673455,4.24546e+06
-18.30035080086833,172.26960272743605,13.580566039769465,1.9655052e+07
111.20519289736473,-85.45030375678829,16.154455596729825,5.157169e+06
147.48591524942572,-51.466943086753105,18.102553477012446,5.8455035e+06
78.78452367613102,101.08179588820059,2.8499814122086087,2.7084425e+06
-81.20120089731135,-78.91270308531624,-2.361926757558248,1.1079337e+07
110.75778760882702,-112.02583909387482,10.155722192403717,4.4506e+06
-42.26128592135484,157.33448672969087,-4.857962193066164,1.5905212e+07
107.67132112132724,-118.95706745713692,3.6227707534286577,5.060264e+06
-177.54946772599212,28.382908610046,1.0070968474237303,1.927983e+07
-0.8399431278517682,135.07885433912583,1.2676548860651045,1.2804484e+07
64.70517106120093,106.79413020310994,17.661560602651857,4.571551e+06
155.71892134730064,87.54718489049384,27.298728795228833,1.2158516e+07
97.68572580945232,46.88439001700169,3.9979853479948173,8.60937e+06
-165.5580732309724,-81.33346330568263,20.261508082816036,1.4858714e+07
82.79641870629973,151.05976761169057,23.08223847818985,8.0900665e+06
33.38463760354355,142.7715949002535,5.387885619093968,8.888008e+06
-121.23541458692917,-111.63362387672882,9.653529997430901,7.327823e+06
11.161738323155475,149.78349169920972,15.654578123890097,1.1629671e+07
33.08586809464913,137.89112122164204,29.79238497765136,7.988732e+06
121.905500558406,-11.269783362360897,12.721066062795156,5.9387975e+06
-173.227151148861,-18.40411512615057,18.73805787525961,2.012657e+07
-6.761601731915732,157.29438629453853,19.608188562320017,1.22391e+07
136.7557402885825,-82.46168087893078,24.049170415058402,9.004299e+06
-46.422470235928245,-132.53710017938732,8.79709899433233,1.2196443e+07
141.3773380173015,79.89336358979847,38.989903524747334,7.23191e+06
123.45567866099236,37.737748667817016,44.988674547365775,3.7651142e+06
-94.77902893050482,154.54298749708175,38.141603319548324,9.263169e+06
-128.1561154873632,84.86012848223254,13.602026343119896,9.586955e+06
-23.480792798590443,-87.7395980856869,-4.131372531084336,1.7060482e+07
-108.90549816050728,-7.062177951623482,0.5794366123847727,6.849167e+06
-149.60497094919072,-75.77111654375086,28.01368626886952,9.856653e+06
-86.2260173493342,-152.8560445015124,26.794904571788454,9.308072e+06
63.88615809853179,103.57808873073549,20.674141726662793,4.95938e+06
115.8814546574551,17.242714159296042,26.262051524529596,1.2392028e+07
-67.77617071858324,-92.63406577572901,38.525956900640054,1.2767081e+07
-4.214833876956391,138.44389763999823,0.9510825822906726,1.2748142e+07
153.41081382330282,100.6227740111533,1.429441263731584,1.4704728e+07
22.352452004437083,-128.46129164457773,43.54497378486952,1.1878824e+07
-170.03775796741988,16.71293416097788,27.21624568039726,1.3414364e+07
70.60824845193758,-148.4294798887808,19.0394661542999,6.193828e+06
-18.970899310039073,-170.9271596892399,10.167807121647387,1.5522518e+07
-19.309225782102146,-145.7389682814184,1.9355677173655472,6.7405655e+06
155.4633731286122,-16.57804435327708,30.64833815694386,8.645737e+06
147.10742684746282,-100.56427174395219,3.3774019372900526,4.7208125e+06
-41.70063669671896,116.52126350421128,24.6304405911235,8.563233e+06
70.08596279938382,131.78806959406148,5.405215763052685,2.531798e+06
1.247175873676241,-109.27554342620729,39.590084058540945,1.1272359e+07
-13.94002927386623,168.6877565887765,28.895434785350595,1.3244401e+07
69.68053966606817,-147.13705433955022,30.40110330979574,1.1883545e+07
-0.5879803570913964,-100.14035249559501,20.792947465220756,5.850556e+06
-152.0876750144687,-75.4015139940991,17.797477170758505,1.1917779e+07
-109.33226840812375,-137.52924524480534,28.15309450147623,1.1334113e+07
-182.6214275422378,23.753256351175708,3.796030583054013,1.3329646e+07
-136.44124917641466,-85.6937793508116,13.875579731147443,7.6367695e+06
50.8482686488407,-117.12027452964931,30.396793719789777,1.1253104e+07
75.62900567833941,98.72695366643569,11.10152059756799,4.992876e+06
-42.6573280793923,-160.91468450320758,26.51542225764113,7.15745e+06
169.96704726004282,-53.55769619436589,15.324287585808369,6.324647e+06
-91.95228507869051,129.31009553747816,21.735170048619963,9.379669e+06
-26.91430149417644,-170.05880837526246,2.720118842298138,1.1525621e+07
168.46110900140974,-61.4250016260265,24.77048956025399,5.615444e+06
132.49318897978742,89.14001814044417,21.452327444899147,6.8961655e+06
137.33366941512264,102.75508102079323,-4.4299225059885075,1.9677072e+07
-107.25782020617567,-63.84574870550108,-2.967231736623954,1.0503746e+07
37.10577082147489,100.44018957126326,22.80489077034954,6.216974e+06
116.97795061133105,-37.10226199229294,46.797535706043945,1.1767276e+07
-121.59958356810603,63.7096105822132,0.9496336660812487,9.98615e+06
146.5748901186697,-32.392036956924244,17.11661611811119,4.1664962e+06
-110.99478172387789,-147.30193245754984,34.34877156227764,1.4719622e+07
-87.18446025025885,-56.26167415659532,5.753990266567799,7.056654e+06
-139.85711054223867,106.91924013663345,37.363928270113014,1.7469832e+07
125.7818869662733,131.14644093317696,30.48219746165657,1.2362944e+07
-1.9930315375511896,107.2140075514486,35.31960168463546,7.973943e+06
-139.9744114108155,57.22001629210632,29.916378015678685,7.949863e+06
147.21375309722538,-102.27305977744638,-3.7231591522016902,7.9521425e+06
109.65323484200593,-145.9432939238954,-2.5259196363838448,1.039376e+07
132.6212901402892,30.115387300328223,24.711948550666055,1.0793405e+07
151.31835583257015,-16.53971819995249,1.8616947995507398,1.2796136e+07
137.91214247730312,-100.88950705451518,32.212959920418555,6.17137e+06
48.19804649198147,-108.61265793790223,13.37233775790843,7.83743e+06
31.07460351470351,-135.44579712323178,7.943474221439848,1.1249106e+07
-58.29243116292244,-70.2774240655213,-1.7616074758928777,8.824676e+06
100.99062055775278,-22.498427563950514,27.299508722716745,1.2325619e+07
94.76721220407944,27.432229555013436,-3.7899356401033324,6.7291705e+06
127.08436281182217,-98.20467353706124,27.78744042011192,8.702394e+06
-170.1832753881032,-45.51732913763939,9.438705149308133,1.445223e+07
-139.89155046920044,101.31138214987413,13.620256840045647,1.3554038e+07
-122.115915146041,-55.770264403208756,14.22814061047208,9.566838e+06
-116.13345825279389,64.20049744413876,14.283956808183982,6.4591645e+06
127.11470680806605,-66.16893592812823,44.62691251182089,1.5815478e+07
-172.08490814515542,20.41717243075297,24.17336744402378,1.6980432e+07
135.49954999092347,51.9428048003414,41.210206724915665,5.299951e+06
112.01537262334857,14.09776240975117,20.469030568504234,5.556165e+06
-146.56778823819286,46.474226625835854,10.809033927333164,1.0889082e+07
-169.05820857809073,27.751161167330114,20.78309875942064,1.7973602e+07
-156.41549813729466,-53.7471610699011,31.337800390705564,7.635415e+06
40.784439381577954,125.81794418552039,-1.5827577208105388,1.6843248e+07
90.76688163043747,-137.7546914150083,21.03114390698668,8.746868e+06
68.98614918914683,-170.9886235258568,21.367646871928702,1.1137248e+07
-133.56367200322597,29.334904736801235,30.518467043842705,5.239607e+06
-118.60135890367175,31.955895578607368,1.7415154117266336,7.9240565e+06
56.17915017305711,98.20847929851851,15.13523515464379,5.1059725e+06
-129.48395470939022,2.6591497390393215,31.25030973833316,7.847319e+06
79.93081429022897,118.52070185610069,2.5098881160861493,5.445605e+06
-159.57686714732586,-87.16005275131144,14.104854450805117,1.2845005e+07
-167.77441839711238,-86.45408540847211,0.16438807712708306,2.060509e+07
-46.820604491690204,83.96374716358673,38.96489366098911,6.694961e+06
116.46589888966211,73.12521737295049,19.548294489127006,4.1609928e+06
-82.53879411322967,48.94109688352569,18.049712615793137,5.643447e+06
-35.27709494562146,-99.4597429639518,-1.6358966122414502,9.665857e+06
-74.72922159743493,84.21080728619972,22.09051876933684,7.1995225e+06
147.84563663638716,-59.19285378883466,5.333623915704707,7.253899e+06
-85.16657808711443,127.55222323748905,12.832608109081612,1.2018891e+07
137.1323416464287,61.75010827352031,36.729701060004956,1.0819767e+07
-107.4683006965595,-3.6111039858077163,38.910754724005066,1.3481874e+07
27.134444489329923,147.02961306348834,5.3672007466622,9.847814e+06
111.68704827581803,-1.992612030209301,2.856595006864054,1.1390092e+07
-130.01747111860706,2.905225436594577,27.548485458704818,5.3907615e+06
163.80402591186618,30.143040846054703,18.497261451030216,4.8735305e+06
-35.29027878418992,-126.86564696116726,13.53709049358925,1.208197e+07
-77.47558388756359,-111.72736229070641,24.261966253746834,8.802467e+06
100.24316870525477,127.2326634536616,17.35099117278708,7.6042065e+06
153.5365956659724,73.97947326598688,16.60294588452878,3.443589e+06
65.97527449915901,-103.84678039822468,31.33096479920509,1.0940492e+07
-96.86586056198574,-146.94428709735092,-0.5262507300114541,2.232111e+07
-86.53474308502834,-91.60113177551801,27.03417788482513,1.1413062e+07
-109.14397485018341,-62.87176269434872,-3.840039227826353,1.1281695e+07
144.47224642846584,-29.038743037307484,42.89471946144942,1.1666891e+07
176.87770092041973,-10.741182562765516,23.50796861061435,8.3262655e+06
-3.8989723896112873,-114.18594295975231,21.97607559718158,5.1240315e+06
-151.36009644575572,74.70289838523081,13.464384038442333,1.3049943e+07
85.24624407900319,-123.54367150775953,-0.7105457000063383,8.1289095e+06
17.414167523093482,156.67382925842622,41.242908452538934,1.0170151e+07
-115.48122395949778,-2.6940499838487995,6.060808571213669,9.597343e+06
-17.977447519830804,-136.53364170716267,5.9628573875487545,1.1236868e+07
-62.452083580001506,86.47039233703526,17.161791739340444,4.320457e+06
-115.55446446364503,-62.28172982839221,26.850121397908858,1.0519718e+07
15.591041667436201,156.7661563043281,14.003512585486185,1.2747251e+07
-161.74522456705984,-20.76259860413603,30.43419579940236,6.096674e+06
1.5334633424653816,165.4578332208962,21.311885871062238,1.2579492e+07
-42.934655801181606,-172.64720251359353,1.4195255284408206,1.2414213e+07
-117.3391242541769,126.16321645327122,17.175495026818435,1.4551582e+07
-42.25919390047835,103.25015459353604,37.41045509755465,7.8422005e+06
135.6891373546494,40.46678964004849,23.377485729780044,9.105785e+06
-15.474761625153008,-146.44483919359016,6.679064976826688,1.2595502e+07
-128.29163455373566,-118.99686614876387,6.462749740636735,1.3869407e+07
-137.69194103248424,-103.43915691455936,13.139314983748328,6.608358e+06
16.8787155335732,-150.89292921248298,28.205207939516292,1.0960278e+07
8.197353093013277,-141.96790498889015,35.97898555135888,1.066352e+07
93.33937021004175,83.44713289604039,3.6439453068838406,3.8181992e+06
108.77847148951128,38.74321346708939,16.423529386446287,3.2878972e+06
-110.1171304531551,-21.84418340006303,28.807750851549883,1.1690036e+07
84.71940450207029,36.104779819926364,47.383770510235486,1.3725552e+07
136.0506234422901,57.36099882354625,33.1211089116225,1.3776992e+07
-65.5977482052323,98.89676400363783,20.247936527579714,5.8006425e+06
110.2159559988433,114.55845551377348,35.8643527382582,9.150661e+06
127.40510036475887,78.10113981511921,6.1342986039964424,1.0316234e+07
27.378580002572587,-159.81079175826105,-2.469442408313969,1.100252e+07
183.00237378498377,-23.352620603129537,20.74503840446716,8.1854395e+06
-112.05140773815758,100.49234546987013,-2.813397571379455,2.088519e+07
82.46782603555431,-116.19199940855309,30.72596958555879,1.0398244e+07
95.36815351586392,76.7347212116236,-2.694814569173662,6.981105e+06
-70.07152341608904,-109.53672802501333,19.954857818164594,8.83147e+06
175.72128252854776,-18.139641827212216,26.94452812255201,7.275562e+06
-121.9247934971083,51.67012330138028,29.01419880159223,6.9143665e+06
-111.06697215853774,-108.519476649368,32.830160141257245,1.2887793e+07
-82.64589418837164,64.67764027833766,18.377314818315554,4.249919e+06
-40.92099571726982,96.32131482525818,17.72308647224083,6.085772e+06
-82.87654710520793,85.79915396318859,3.544837459974108,3.8529298e+06
4.7388522153005965,-148.95713841547263,22.385445953902103,5.344922e+06
-120.96970992834106,37.53367339631305,12.369383103214698,8.729512e+06
148.78413474432483,-117.47357826470916,-4.389425442915329,9.684808e+06
-2.2786335669565574,105.07081454719287,4.373803681840463,1.1266886e+07
17.888893546806145,-178.25091180966015,-0.18144062150500403,7.398591e+06
-95.99367046541913,130.6652986365495,42.89411880454441,5.088989e+06
37.444121853421564,170.83524789901946,23.938734811893443,9.678617e+06
-17.267479491873985,118.32880919137551,39.67119519477741,6.5569175e+06
-16.09118679724358,144.73482070931396,6.053088524304649,1.3393954e+07
-40.24425497586273,147.10661967751673,38.42145320334929,8.941718e+06
-155.96735290573784,-88.81075609747535,21.35511714456472,1.1710219e+07
80.98903861639013,-44.798971798342905,43.2594939616349,1.279818e+07
-71.8159692413301,-97.74365489545276,22.661113253116053,9.491621e+06
87.37473505745356,78.09501113228794,30.815544460576838,1.286894e+07
-42.315211863977225,110.93187311122658,30.666975525036275,1.1213787e+07
87.9075294901429,64.34976558507361,38.808732240993194,1.4603941e+07
132.3050013100683,121.29639988711233,26.40639763754839,1.2500923e+07
150.20638142505345,11.807563507306185,14.872516732064803,3.7947688e+06
114.4644630542287,-66.94050237724215,24.086944600400518,9.782999e+06
21.854131444477332,120.78443761678994,1.766705734763489,1.2044415e+07
-104.8418642866784,-85.1433611909643,16.52242474090102,7.354004e+06
89.81543077080329,121.93456905666106,4.695587810900254,3.7877098e+06
-110.47303085044553,106.05673139228912,-3.721104754748857,2.4003636e+07
-119.93393382688278,2.7819831853316828,35.549470080860786,1.2131672e+07
58.99577596109816,158.9235395141343,8.073500601728695,3.5175072e+06
40.99583076084491,144.86471396662733,26.98407736206539,7.301046e+06
-0.4146485830983977,-165.29592863527478,35.10868422097911,8.636304e+06
158.56783170166187,-69.5018851759269,11.1540890962088,5.0100985e+06
-103.41665939849211,-83.81916204064686,44.80409192681959,8.1810955e+06
110.87804974069239,63.39785974152841,-1.5824180970430122,1.999231e+06
93.78022341622432,98.87153370658973,12.939447871255549,5.659778e+06
72.22508537460607,133.4464722437093,37.312718683856225,5.063174e+06
68.61892324483324,164.0278284051065,9.571473828723414,4.040281e+06
109.91878921385857,23.642406993128787,29.98566153595292,1.5187195e+07
-12.066691567605346,177.54290587836692,46.84888819589375,2.3988496e+07
-87.39825321868504,90.58153426516412,-3.1321845991782635,1.3927379e+07
129.90284221188307,-37.51040858392244,1.667000780608578,1.0218556e+07
-110.59496737922636,-76.185370760146,11.892294149646048,7.251869e+06
149.05094591995135,-12.549998099321954,24.273876826683463,9.629883e+06
8.782003491742216,102.61069274673964,28.466983535960857,8.7976e+06
136.42915984650205,-102.39598458660777,32.73659349717831,6.268732e+06
-93.04416902756816,-136.86953342807413,30.555705863967887,1.1125056e+07
108.877001523471,-106.74328087857887,5.584112834843484,5.289012e+06
137.28420985278217,24.453617488979887,3.5687988375692865,1.2911667e+07
66.81753812806136,-167.82213767026133,41.14504498721682,1.3566181e+07
-119.67921955147207,-81.66409525538486,6.217902003883327,7.359991e+06
72.2030671764453,-95.97491910002604,36.50389185415513,9.937559e+06
-30.26120874405933,96.49765733734944,21.99641419815668,8.571718e+06
-76.90944448651985,-129.21767736413838,33.64061719404649,1.100131e+07
111.54798568436206,-75.41596980592291,27.80463336657689,1.0532143e+07
-41.39569499423703,130.36706997000095,11.1641828980121,1.2482541e+07
168.01354925057217,69.09060202622629,28.408448830238612,1.232291e+07
94.55319027370342,-141.1835448799888,16.32046988146305,5.843783e+06
42.50865110257075,-175.7050062208121,4.727598593017865,1.0611608e+07
175.06696264222916,36.456712975333744,43.80791188144164,2.5606506e+07
121.58967028369949,115.98283908111091,12.45855725176699,1.0207804e+07
-79.3252835985073,166.12502034117682,1.848763502975129,1.0129427e+07
-138.104075669842,-46.42018858635106,1.5837627233875646,7.045631e+06
75.12699431203043,-157.15452378546013,25.978046293118407,1.2675775e+07
-168.32102080821923,-33.6036907865583,28.309297869701116,1.0675671e+07
91.34622343422001,-56.74360384321512,0.30206036169886846,9.380025e+06
131.9072090016063,98.55303526725532,33.52967960971188,1.1966402e+07
1.7847339327584848,100.0242562946105,45.26338538320916,1.592555e+07
76.449071488632,89.86037803063971,27.837962426918068,9.724222e+06
-96.20638587484996,-101.88346649117017,34.04936262602152,1.3519338e+07
-180.72965776153453,-26.538372868752845,19.141639859559337,2.2219194e+07
-67.08859395584943,-156.2079528633721,42.46300030135284,1.0213798e+07
113.53565349172545,46.33504922023627,34.31504175894226,1.5670831e+07
95.02289550107082,66.4889492909549,33.44249442449548,1.4928991e+07
-117.84691850303632,75.1902436125115,36.236575811026576,1.0519039e+07
-167.4623108609407,16.796042872167504,13.165122573817584,1.695214e+07
-41.26808560170625,141.04197791254205,21.06989824337391,8.975675e+06
-83.89109170130867,62.10665360349299,39.7199389539491,7.8540275e+06
60.78074725251696,-134.61680750997243,30.971458537817973,1.164947e+07
136.3520305240272,-64.5416032345239,27.042125134041473,9.414245e+06
160.06083958792902,-70.92347314247266,32.5574015844098,5.7743075e+06
97.19005566167698,-30.20302999307134,-1.8217138863611713,1.0423851e+07
-22.78345150980212,134.8149144360575,7.10779799062998,1.3014921e+07
115.51332707034987,4.188810201139688,9.690853747398059,9.614118e+06
-176.5616309131945,-24.533923243563123,-2.8317102160700274,1.5880148e+07
-126.72344826326456,-41.60961231151177,-3.6799349351816293,7.6630575e+06
54.75808649478614,-147.56372962947916,41.46790649635362,9.980543e+06
3.4076056858286283,-161.0289463163204,-1.262052087345331,6.340356e+06
40.579058616556495,162.84403572243264,40.35007230406006,9.751336e+06
-2.790872057567867,133.31147877739625,43.71875097549044,1.0303016e+07
92.30947465562241,-113.93317863845151,25.506226232970185,9.762816e+06
101.24322659512632,-122.29346322508978,-1.1678277300524742,6.7460145e+06
110.86040715748663,-9.253388537775919,6.1690747980514695,1.1258514e+07
65.89530902532556,150.42205362472544,5.893212395811597,3.554634e+06
73.76581093237161,149.1519907442492,14.516415231815715,5.570768e+06
-36.90818343806353,-137.43880235397782,15.794233700990173,1.0921435e+07
124.16235662515203,-120.95673382656886,4.667823825636272,4.394872e+06
-177.72856340318856,5.511223003973299,40.18539961586057,1.6722583e+07
172.91093432384622,49.74349353109227,16.218635190374908,5.8108565e+06
105.99418653808648,-136.22817216975753,36.54193146740625,8.444384e+06
106.18569447262492,-144.084464484713,41.8097958590177,1.9576864e+07
-61.26241895324179,112.31791620630077,45.44783731364214,1.163884e+07
160.56582804523583,68.10890326658108,26.46278175439967,1.1555501e+07
-16.328343556316128,150.56277233607221,38.27427734470615,9.937277e+06
15.836096256947627,-125.25645750485012,33.08745963342628,1.2045751e+07
-142.4308515974609,-15.786681934638748,-1.6911214451914567,8.922226e+06
14.914077859397965,-103.2597813885499,33.718280107313596,1.184357e+07
-22.635276865812784,152.37817608227084,44.60217611534513,1.3227864e+07
-125.34873013288856,129.6048546470472,9.511654966331625,1.4013609e+07
-101.27184772010715,59.21010529784547,1.1832549850595988,6.5688575e+06
102.90791148725032,36.87247968845219,29.93773658175592,1.4895761e+07
-59.73693887246566,-74.59987792793896,0.0449290100178748,5.7145155e+06
-171.92570955170984,45.83790656771947,28.798168148356137,1.7199362e+07
-47.598529257591025,168.48041853544942,-2.290305803009948,7.824173e+06
-23.017389762248854,134.07462283697924,25.62225559551893,8.556105e+06
143.15441539326093,7.289306897388798,13.266345492118347,5.2774545e+06
113.29325429297457,144.85053768804568,15.401651190502307,1.3282071e+07
-60.914631722047574,93.40763710338314,4.721595198979243,7.1543e+06
42.50303510697191,-95.78129443860988,31.559514864336215,1.082695e+07
132.32252284481086,14.514386418494496,37.408228390038786,1.0441606e+07
139.39646024864402,29.34057552383683,24.598781985610508,1.0591696e+07
-64.42157950702122,-156.44138799643406,16.349645303824627,1.1886576e+07
-21.437861622737756,-174.19593995468978,4.230359146092343,1.3910567e+07
-114.07090880353405,106.2287569966648,37.503577241979194,1.0805473e+07
163.85493239756056,-59.799240567460686,44.91183513264737,3.728531e+07
-20.643490657924474,181.96341750680733,21.703959419435215,1.8334554e+07
104.80970282881776,-78.52596887547972,6.975143895445682,7.420722e+06
52.108001141375034,175.43253975008452,20.15439805384037,8.908565e+06
-110.31443209727078,-16.392633945045304,0.46435161684906073,6.458355e+06
-118.09639314084843,26.21337974853412,8.297818026261746,8.929379e+06
129.78369954425,8.352704636446703,39.46577471571273,7.966836e+06
136.66378657784662,123.36761441964778,44.36126782231996,1.7341826e+07
-155.6025844591369,30.919865271458008,25.361273425158174,9.821883e+06
133.47606159095216,-27.24828809182264,29.442503683896454,1.1900145e+07
79.02378927448558,154.69854580929348,34.742848414043046,6.823126e+06
-73.19822217157474,89.27236774509925,12.20823593021808,4.565957e+06
-85.05025976511314,117.43794399654719,37.591768343893065,7.91704e+06
-79.20141576413342,-73.66680961732186,30.927462632027,1.462384e+07
105.50985041116631,-86.9034178253532,33.35422073411533,8.438582e+06
71.62555624430615,-158.90837505737613,11.125900074275311,5.972423e+06
27.18202176797848,116.69078642594303,30.781819629610716,8.069046e+06
171.21552523152695,1.1470780758899366,14.557253042212825,7.010305e+06
122.11610329372633,-78.3326794024907,26.6434682211355,9.951241e+06
-134.19919015094018,-104.50809629844882,44.60294632731138,1.0011149e+07
97.59996163612271,-21.670960413105746,-3.8697045802583254,1.1795057e+07
182.72888240164502,-0.4086286955923981,43.72270070579394,3.435696e+07
-70.91783892554653,-117.41403018253789,46.828050827989856,1.2333476e+07
-20.4851228916568,165.14131515168202,47.3746645088841,2.1818432e+07
-178.02036817507974,-36.193603423717576,29.362798882899625,1.3101137e+07
-140.4727188551381,-3.286697546400632,11.398010175124167,1.2951801e+07
-11.595079030043166,135.22809917029008,-1.4076242155987357,1.408181e+07
180.41803832733405,-3.7408101968951257,39.88355504660471,2.0858814e+07
51.641613283250855,-118.5288662582121,19.030179430015643,2.0558752e+06
74.78215913218918,-116.01886955197908,10.173357584535703,7.581881e+06
77.33560146276932,130.5160128647559,46.50551207156533,1.3703078e+07
115.51386709369262,49.74125083958975,43.88601485574077,6.035526e+06
160.18643832435777,17.83488280153739,32.142488465112535,1.0098546e+07
-9.371259113418517,-173.71471386094024,31.566727533216554,9.349174e+06
-103.07220342808247,-126.54813575152936,-3.7076257193342683,2.5264904e+07
-114.41416905785849,-122.27343325524575,1.0561154635399785,1.9139078e+07
-142.93511720840542,-31.560443838390427,24.69991670849136,8.460678e+06
-46.87777391526282,-157.44539513464036,43.077346666776066,1.0403605e+07
25.267151886047035,100.55744826621049,-3.7340570353724396,1.7796384e+07
54.37894857505711,-112.69313384135499,-4.822217620820575,1.9048998e+07
2.637424373466189,118.4782171824388,35.51650664565384,7.910384e+06
128.7904781464963,69.93094022334708,2.466768240754547,8.998653e+06
120.74424630682432,16.42573229277704,23.690375913040203,9.735625e+06
105.4981232081679,44.380287457596125,4.722782117504128,9.826124e+06
21.478254023657456,-175.00845350735847,-4.476267200638941,1.4195002e+07
-169.89952059462777,-56.36327073437051,-2.9733504506827453,1.3377854e+07
-71.7635930491,-121.51244918968294,25.482556296249797,8.622927e+06
-168.3664951701127,45.609263068434416,15.064672629921802,1.7283542e+07
-85.6621520444051,-144.93205746283965,8.698770671589088,1.3144924e+07
-75.33495825601331,108.10099296476108,23.668402123332317,7.479604e+06
-107.59410583757507,139.17407412691614,20.04204721425683,1.4193136e+07
96.32353417862242,49.83891542392058,-2.87735083616467,3.4954068e+06
-99.19495864747883,-50.08410467837469,21.279044894476087,9.995834e+06
-141.78836992761183,-114.76642930649582,16.471525607302638,6.1712845e+06
-123.9746639788641,123.98087511718741,12.00389977637662,1.4230452e+07
51.93444433714291,-157.198326817306,-4.014668392168009,1.6039116e+07
-62.10676278667623,-150.76948072507585,25.535208909370375,7.211162e+06
-116.16951893480243,-97.890629731222,20.065377569130565,6.1650495e+06
135.41756717883823,33.96587210305347,41.42422285187527,4.4345725e+06
-19.856942695915393,125.05516273103132,34.71034311132161,9.360002e+06
31.75936616734535,-134.3948127809182,31.574590893078888,1.2069494e+07
116.0958660787278,28.318634176293582,-3.5948444078343162,5.6781325e+06
174.4669638556602,7.087695080996724,11.094211419706646,1.0787654e+07
107.71938876461047,17.89245125345974,13.195807724464789,6.645077e+06
156.28718530015874,96.77952510281045,38.66352355183801,8.35416e+06
-167.64870757241118,-32.79340377416213,8.815187247458734,1.3469031e+07
49.068773781751275,-96.53968727414721,-4.2649358380829305,1.7848872e+07
-112.94760914896847,102.77798896801634,12.460802034601393,9.311413e+06
-72.38031975652004,162.5890871376099,13.374931832629045,1.9349916e+07
99.68081070560373,15.738338615982627,-2.366331786605809,7.2398005e+06
145.3490130933322,87.49779928775439,28.563555379114717,1.2684345e+07
117.32376427609996,-92.63386444602087,-0.7584613056806369,5.006668e+06
95.75095333420643,-148.540131346828,2.6559423558953634,8.196053e+06
70.69901679739695,-71.03443609616394,21.043955808628706,4.522418e+06
17.17855954526729,154.87896951237025,39.10626419983391,9.401159e+06
-2.7301104992930902,175.06747044390858,-2.418424555512909,1.5902241e+07
-33.407444442337265,109.74817840400131,45.260825647246364,1.3681153e+07
36.84048005866933,-131.92795593077096,29.58717986494949,1.1547148e+07
-54.15801167604178,156.2246748997547,27.096568566981865,9.882646e+06
140.25235477779682,-65.57402907840108,32.685689933799104,5.406192e+06
143.54540827039972,-7.449764118857247,43.9943297747749,1.0536171e+07
-54.658505951178206,-131.48943739411374,27.888157558757726,8.883844e+06
163.5474385924798,-85.70459426678099,37.76620320559222,2.1385238e+07
30.87143722988114,-100.56423725117462,21.41115052533616,2.008719e+06
178.76118899195876,27.47233893565425,35.77768036995778,1.0357651e+07
2.384957371895922,-182.77251594442845,0.6799287912293674,8.020113e+06
-41.3157321333606,176.5476183987737,36.213052100936345,1.5688219e+07
98.08220883746401,-137.59210625979597,44.98277854008736,2.3787556e+07
6.883520638995975,-154.0063511149366,13.715025533778324,9.763792e+06
91.20263488360234,138.06598498052136,7.281963161444112,5.7324275e+06
103.68370969309647,153.04798339324907,10.824106855190806,1.2492286e+07
-97.10438885818408,123.0708432186891,15.252202825086853,1.1540805e+07
-110.34891773583455,91.9450918398407,40.19150529489491,8.292523e+06
-20.578035489894603,134.58773170939452,26.887658939938397,9.012051e+06
108.36696395357286,155.366592135166,46.9971341317378,2.6332548e+07
-119.28655868010205,-60.97164925574785,34.84954599421083,1.4041546e+07
70.64029326290091,-105.73503153568917,28.75310266760466,1.0300536e+07
-36.213518582324326,135.96359467260936,-1.6583063389098303,1.0920576e+07
-115.15199407945569,-30.30339024328472,42.33971948562613,1.1912043e+07
-61.80568693301035,128.01542844239083,37.92046236009108,7.3190825e+06
-59.140629508720984,-156.22199597853836,7.774299792094065,1.5209626e+07
24.720014601693265,106.02588006308491,-3.6002531456435958,1.8262828e+07
-151.03215142886026,54.30706219077973,29.525955294379532,9.974354e+06
-65.91774647243307,-157.93021437413296,29.20122694777089,8.774355e+06
49.608036878081606,180.2667495425572,-1.3709038165868646,2.30397e+07
-62.68165122220828,-82.0045710724858,5.698828002367714,6.0329435e+06
13.248057519614688,-136.21729359135884,12.992849881530233,9.99668e+06
-115.3477246651159,60.10365887120537,15.875261609001587,6.0378015e+06
-97.96337493148344,127.57657990928834,8.383154985383678,1.0928013e+07
151.42814062111745,-24.561510440572363,5.040261741520741,1.1284626e+07
138.59611814509532,-18.06300343987624,15.363206641668285,2.7261142e+06
-145.03679267690802,23.61712192327903,9.655234771148976,1.1462299e+07
90.52805007095793,57.517772104845676,10.07341515700798,8.040183e+06
16.166129369456655,-143.9909997403673,17.110780519719658,5.2003135e+06
142.99097086214465,76.70693406456638,42.80544924326295,8.713007e+06
-48.979140961674574,98.0839368320992,4.464763432253925,8.769017e+06
-168.50697863635708,-51.355065979936484,20.589990349138883,1.7238034e+07
93.23302130307451,-126.17387985099393,41.98278610242828,1.1204822e+07
-3.1195614710023563,-118.63707190882593,3.211307004636755,8.220518e+06
51.773985190008005,-153.15209004383348,-4.445166802825564,1.7300114e+07
133.0000427946831,94.72429355980825,37.82831992704922,8.291815e+06
-23.92751470165345,114.7927521234572,-0.6774368456396839,1.2624714e+07
-10.149303074129989,192.4644731101775,-0.9581040850095781,1.0747722e+07
84.02876275499705,-112.14864129497997,23.181989998125914,8.0411845e+06
139.24551074375864,-7.820782387526577,38.49636938669221,5.4768815e+06
19.12555199976009,151.56665160200146,17.035326417251724,1.0427102e+07
-131.7694718393396,-78.68577807586941,22.150237526702675,8.205816e+06
-63.65259385713128,141.69116144890876,23.911976580141225,8.192901e+06
-72.95563724920657,-99.8055660294554,29.399760686605042,1.2234165e+07
-13.931733825261402,150.81427210223615,20.441656569238003,1.0748655e+07
-142.59075157550717,20.84658002794191,23.23052795256249,7.438705e+06
-98.34018824613615,157.03993949366514,-3.3286569339239596,2.3974094e+07
44.56314025224586,179.0855775762322,22.772630651086374,1.0372982e+07
-88.77956953181108,-91.06334055237167,30.04208532273267,1.3101448e+07
49.42411704062576,104.2697689908789,11.080624860959588,5.823521e+06
60.870021157903295,-139.5684982409071,13.20580409376305,5.283709e+06
-188.99223379005593,16.50860406939637,-2.0383541884037846,2.9376444e+07
26.24988239505708,-130.78552420085305,-4.940819634895379,1.9997606e+07
66.4495520536999,-168.00448241020848,40.456308568678025,1.2113496e+07
-45.2616954004755,-121.99898705582059,33.67913399183633,1.1214235e+07
64.25461130179724,143.44525956163238,18.410387140416464,5.4096835e+06
98.25813469754138,129.53396145277037,37.495945925011256,5.4531815e+06
-33.61686451149649,92.9678484819483,44.79393097196076,1.3846316e+07
-99.5359129545085,65.19346082660383,35.24582362161692,1.099313e+07
-88.68326594546603,144.18654018777374,-3.9437159156666293,2.0922452e+07
-164.5980945512096,60.4585380572537,2.125503061766753,1.8211458e+07
-72.74311646883622,102.44572090957831,0.8265892512592969,6.332488e+06
121.8986279984249,-143.5083992856342,42.83943293753868,2.9439818e+07
85.6587978092947,74.98597998162,37.97995384505158,1.3721285e+07
-129.85777287016555,-127.02997978595505,29.702033140247135,1.3282501e+07
-35.47061133883159,-144.92818430311073,31.194374128897756,9.511877e+06
-138.39671549196373,53.65425242640356,0.06822750110100528,1.5260005e+07
157.97518086454482,-63.051009498431085,26.19289592041046,6.60575e+06
-72.96877266536099,127.2878665992241,27.631050292521678,8.989835e+06
-113.0331902791608,36.89082762293424,10.576245461344815,7.978799e+06
-85.88861054310071,95.37257163812711,13.730024819290346,5.4407735e+06
-117.95771024251236,-13.52764122226793,15.25390000200284,1.0619486e+07
140.97390357187624,-20.595002047246425,19.78408811072758,6.1381595e+06
94.55543263351757,92.72068553876187,18.953531749131667,4.578059e+06
120.83976289953017,-130.8312951234082,31.732642634074303,8.980699e+06
-15.91659619697029,-109.40246582013242,6.08517924907351,9.931963e+06
22.674951741568492,100.82898780665579,33.62659543345169,8.1113225e+06
79.51856539323086,-154.05388081177907,38.71107110400948,8.988568e+06
116.03303761140336,-74.56555912593386,47.02166143426551,2.0186336e+07
-60.7798325999419,91.58411399797484,26.02621408863352,1.0776724e+07
30.319215671012017,114.1943044653591,7.743372503036165,8.2892975e+06
88.28272961090818,-110.6215833771326,13.144683603404175,5.0092805e+06
146.80765744522324,-108.08173808516499,8.227573639463262,5.434171e+06
-161.7190434877541,-21.572551938875364,26.941070222594096,9.78954e+06
-95.62588053954815,-50.82153908668746,20.66155947816609,1.0174414e+07
-11.577598934640719,-156.22018346891102,34.33754170428159,9.350477e+06
-121.66081472392709,-51.03105196009084,9.857050958765067,9.426526e+06
169.01943196285322,-48.565408932791286,12.306328710286728,6.4451945e+06
-11.580705423464593,-128.8570758431449,34.45951594456833,1.1322095e+07
-69.65377672069027,142.066841966913,28.664295274241276,9.051971e+06
10.162660375740842,-184.4631367972375,45.109840170437174,2.3462568e+07
-15.084271536059477,93.51114722084765,-0.01236609783387521,1.2671568e+07
-75.04765590324584,156.45288609190345,22.106887305019768,1.1957918e+07
-90.16976779286546,-90.82090060908259,41.390676422055314,1.0975337e+07
69.24632169235406,-72.33605061644357,7.224166217393421,1.030082e+07
6.609819279816975,-148.03571495753388,-1.128252243512104,7.8324095e+06
-112.99557604108483,-4.815636534059479,39.146534358700066,1.3114572e+07
-87.39156118038638,92.61928493857141,-3.2807491501905868,1.4449821e+07
64.60099481760352,-80.22415970376855,45.23913730623356,1.2330003e+07
109.31278996832117,-38.3611335029523,25.853177696118763,1.1261509e+07
-159.2450544730034,48.83068256322986,26.37815232848746,1.2619027e+07
2.4891689066163565,-178.82801075260363,-1.4615825831026383,4.842615e+06
-53.053360271756276,151.933565030179,43.10767251049751,8.901224e+06
164.39576678296993,-69.1117525185733,-1.733828696610332,1.0702108e+07
-115.29587159525998,62.52062997173289,43.15201360699599,8.4993e+06
-68.07666092076806,130.7473101779305,14.495552654020763,1.1583537e+07
-43.731121983543176,123.07616715443584,32.445627710601954,1.0657151e+07
-98.85431892653327,74.12958230924295,2.5277478327781817,4.0851048e+06
118.80596119730524,46.7554867142284,29.162470647242216,1.4404643e+07
-77.5759209032307,138.51175355839518,33.55643010134515,9.74422e+06
-106.77837091650808,71.22141329229078,30.28109503070317,1.00924e+07
29.77462016766964,-92.64641280797035,47.11089187237618,1.6337035e+07
119.66071666387687,-114.49217276021612,10.619454258032919,4.1369935e+06
124.76226278626639,-30.69633133249465,34.902164465950456,1.0753745e+07
62.23280912601666,132.9835120420866,36.48111181541883,5.9332675e+06
7.318462279620263,-186.87297199488683,-0.01808256729543295,7.2316605e+06
128.29531368995254,-30.255624270329744,26.567700490224453,1.1673414e+07
-65.14528156257646,97.96777802283736,40.40331465878563,5.1817615e+06
-180.7282946026429,-6.530108045558336,18.190849518612062,2.2404938e+07
-86.26494047686641,-158.54039117772675,47.4947118927606,2.5185816e+07
-160.01559417185433,83.51560324065088,3.5428604799093892,1.6467694e+07
6.197423346873563,-109.50432199523887,29.5863218328496,1.0060418e+07
-123.24382481465092,-117.63512357527004,39.96648440431421,1.1963632e+07
62.898379367022926,-122.62026963625864,33.204884135816464,1.0924268e+07
183.96199901318067,25.868611982625765,43.81680964101827,3.2295344e+07
-70.56380715059998,-83.32372963055757,4.792058301272964,4.7950645e+06
-100.42711765225758,-12.670557073100355,19.39816747017741,9.453898e+06
164.6328675300427,-73.9767514957658,43.29804575790476,3.6049e+07
122.75691451713885,14.676334354029166,29.498932591869533,1.4612397e+07
-92.9706639114721,-115.71658938194015,25.96507123721815,9.227563e+06
8.793390650569336,132.88162730172814,34.776821419893295,8.477573e+06
14.610112675200781,-97.55467994958526,43.72034783926435,1.2698934e+07
-135.58605147091765,-76.32463637580122,13.034126662134746,8.564215e+06
29.92341019912388,93.02182365262178,-4.495344213035331,1.8097108e+07
59.27738683305409,81.03723852670248,22.30219799250973,5.607828e+06
-67.65411046611644,91.9810552278044,35.32355386435514,1.0525465e+07
21.464975671330222,153.58676076381278,7.101486076367525,1.0971474e+07
45.663444764895246,158.02626439594138,-4.167864706612362,2.9074062e+07
151.09463493701912,-6.425183096021585,5.50321511945048,1.2497542e+07
-92.81412509841248,-115.40725067849058,5.476907940477933,8.1266995e+06
-59.177394705819665,-111.48587753390821,-2.8116017522525563,1.3563092e+07
-109.50573108710184,51.50748852543608,35.60014203028423,1.0751237e+07
-146.42680729744126,-33.215805156896494,-1.2014492732470277,7.129886e+06
-97.44288492254279,-124.00912233807313,9.25557358228871,8.654645e+06
110.21447031493953,9.537470955572985,34.61459626740217,1.5956774e+07
-129.29265783779084,-77.80347393061473,-4.689122408725675,1.7368068e+07
-68.23490286547985,-148.7877577845263,28.95669138450495,8.822441e+06
129.77585434532165,-78.15277159495886,12.719085360455132,3.7317295e+06
-19.109582368707663,-145.83208222828608,7.416305857512121,1.3028417e+07
86.65481454962571,-118.85148700984129,9.546355021182439,6.644791e+06
-80.78057736142088,75.00680609517786,-0.8058955885872928,8.1699005e+06
-135.98267035839106,53.078650241898515,27.738412603404637,5.94877e+06
72.54329523279279,116.69990993589421,23.38327020272378,6.3356675e+06
-168.6161329158033,68.17143633558794,40.423308739258204,2.3957412e+07
51.39293344334871,-172.44167551050458,23.61452652242801,1.151832e+07
-1.1651980957287549,176.7332290084933,20.412699802825855,1.6103379e+07
155.11760416459242,94.85414184062631,17.86560075000684,6.7191175e+06
33.703362470521824,-169.34113624342427,31.4439370141357,1.1857177e+07
75.81354955112556,-152.76290260750568,47.25578143438629,2.9367252e+07
153.3568185366293,58.752822666955986,15.896568643204759,3.181365e+06
30.289617462503852,-181.1149238550375,-1.6334602086790133,9.086004e+06
6.736306225579909,-171.00706532441112,1.7533943751241383,8.836015e+06
-166.009689197913,79.04461837583341,20.505304334741957,2.0045394e+07
-83.46318409421585,95.0298019536533,4.636337652028606,3.751706e+06
88.55987971080293,119.69674376075324,16.59235600211762,5.5863695e+06
-63.45822093357697,-155.3836402528133,6.025519568837546,1.4550515e+07
-117.17028765762616,50.729860672438406,9.691025531903817,6.8057435e+06
-110.62268693867301,75.7915632992794,31.796361328554287,1.0404009e+07
85.51582260099553,102.8197949985713,18.35858977621013,4.674714e+06
-30.991147551152352,-128.23059438961258,13.796379157004253,1.1935882e+07
-140.7012500277228,113.02793894231968,10.349017484922685,1.3252038e+07
-110.49392511834121,-26.84026968939338,14.01783142681434,1.052833e+07
130.36270621868266,13.88547269036397,35.95577112393563,1.2365013e+07
-101.25328859074777,-101.46063691469726,17.9604045847841,6.681072e+06
177.9228331692329,-22.492876223466197,42.40161201112307,3.0089174e+07
70.0473740103422,146.34192113216017,19.53899326861421,5.8394095e+06
103.07284491930358,2.429475431292758,47.235718291008446,8.490629e+06
-95.87269264800375,-134.56261256569627,-4.987231435311242,2.7831616e+07
167.39438055022913,-73.53379885327867,37.74278063981197,2.0470276e+07
106.0335532022824,132.52509912319027,32.23438453536022,1.0063137e+07
147.73442009761732,-48.875555863525705,43.12926591824595,1.8221306e+07
-71.08118358842935,-84.20332655096017,30.61319944513941,1.3829969e+07
115.69421632338795,4.567317009284864,-2.599524401696819,8.680648e+06
132.99590878005029,103.70602728878697,18.194308858403126,7.2801305e+06
-144.47730306897398,-74.27153100073598,25.707637835560284,9.506017e+06
-57.21669038248663,-108.24075777510318,40.90182301167302,9.095033e+06
-28.370332526150747,154.72401095471042,5.002397229904505,1.3383014e+07
128.72539160064173,54.05837728968646,45.79590653391046,7.977063e+06
106.48230252514537,-96.18378401059684,19.583674948729485,6.8964735e+06
-29.646297357355678,-98.68416169234865,23.594860245376154,8.2562255e+06
-148.64421760860523,-27.680239429921553,35.29451303421749,7.604092e+06
15.771785634471454,136.513239898385,7.809707369421873,1.1007096e+07
20.229321623387136,-111.24347024425307,24.41001296719268,5.265182e+06
121.86271478874329,1.2045650529305192,36.16126429703135,1.3221076e+07
-42.96591363332368,-154.75286635614606,32.73459136342649,8.594729e+06
-72.26178515986392,107.88278240466845,5.073920988489305,6.4273185e+06
86.25896376037389,-149.08686558219267,-2.8577433828949816,1.2432856e+07
-123.85686861132785,-18.2825206238158,21.637559763996624,8.3817085e+06
107.01740062563111,146.91385578975786,3.6654510925696093,1.4302461e+07
108.72010997618078,-82.76314564926825,17.850703189088414,5.880544e+06
57.688407775568,-101.11189019707982,28.141244386374442,9.443062e+06
136.5074000494762,-100.97955190634255,42.72418999524522,2.417451e+07
151.5181437188412,-65.37519514167519,33.97732432794521,4.5847165e+06
-106.50688706176581,36.68965737092839,28.22108380329874,9.299189e+06
-84.3214108614743,-147.5320042790388,-3.9467458490987104,2.4440116e+07
-125.46871400681954,-45.884572306367886,31.709898943023166,1.1747793e+07
48.73555999052434,-153.76884262928746,32.40052380107315,1.1740159e+07
-27.50175358913438,-168.80435098323008,21.817890833069214,6.3222925e+06
-91.26516746219977,-38.0109574705271,-2.736964177637246,6.021442e+06
-25.930941281209158,124.07329420689967,12.293217772545198,1.1063177e+07
-150.57132115305532,52.41038093213201,13.733607270077954,1.2887414e+07
-116.98912400503384,42.75206047924263,0.5695807440649164,9.01572e+06
-4.286307045373491,179.2582316349172,20.613057601866533,1.7001068e+07
65.42629238202642,138.37385471371482,25.358805177611043,6.776122e+06
-106.92042720403619,-130.34891743638136,5.754414350979827,1.3135442e+07
68.75241830849228,-84.28235318919577,41.819692544421365,9.998142e+06
117.18112132687077,87.53226117757487,25.568726134766287,1.0420762e+07
100.28023727270232,-154.47540713598556,23.1732940622824,1.247023e+07
-22.076862361334463,-130.25656767766446,36.1616916785574,1.0348715e+07
138.15932049682283,56.914678337330024,20.888191998897167,5.4846125e+06
-12.466441658883554,146.91438549084864,14.629864123715087,1.348119e+07
-143.91671684311768,86.79119728394107,-4.798987739821481,3.8963028e+07
-158.8903578087518,-92.48759985662467,46.583322050696395,1.2672843e+07
-105.15250426329877,-16.188242529707964,40.5255504301823,1.3510367e+07
4.967424472260831,138.24077352057333,-1.1971795542729295,1.5477912e+07
163.1112709929552,63.77060248581171,-4.342143509022919,1.1316609e+07
-92.11737891555374,-155.84802593997557,41.319415146602914,1.3100348e+07
130.106532528713,52.52538888439124,19.598543978085708,3.7372472e+06
-88.15071277695243,-127.84277867110222,11.802974638743915,9.39903e+06
163.07523204835735,-55.180242806596624,47.25634906296396,4.425302e+07
121.08814554542676,16.978901848358248,36.43465774023545,1.388854e+07
105.32633087188572,75.1196927456283,-3.8893984486705753,9.287313e+06
-72.41946481898634,78.47001017965721,25.561804451177487,1.061213e+07
100.78458044176944,52.69826354308731,43.75104482477394,1.0135309e+07
-16.87175585715329,-118.99283302345358,21.384211133275056,6.1732175e+06
-119.10191766691578,-98.28293641432539,12.824485982682532,4.9659305e+06
-54.54825778779787,157.56323121298846,-4.564256048119453,1.5225621e+07
-88.62979908198541,119.67785682101947,7.91393679037262,8.922954e+06
50.726927576598825,-165.5071706798662,11.362221705263611,6.9081145e+06
-45.715125762473974,-144.37534751491114,38.95672901429717,6.0840555e+06
101.97971269182496,29.93020142945082,18.102770486605927,3.2082722e+06
-106.92749285318821,74.89501035332609,40.37589976122725,7.801621e+06
160.0721134513896,-36.79197566026633,37.21895989913249,8.1341965e+06
-120.2488363161882,40.61857930956333,29.30762469693057,7.1395385e+06
10.285617260365854,167.8192055953524,25.474180157453816,1.1602715e+07
3.8663050534128445,-162.20820429191747,23.88892491476171,7.294079e+06
-115.11872801640482,133.29673955307453,7.046395244572452,1.2189477e+07
61.766825654670185,-94.0074419128635,40.08143764203322,1.0044412e+07
139.07604078801734,92.60613375301062,37.10200570458293,8.877318e+06
-178.45592238335874,11.316982468964369,13.348832186187963,1.916987e+07
-138.88717043159974,-67.91627340532017,41.631787818950066,8.707336e+06
-161.62451783413377,-12.475433636676371,40.61667207751476,9.754793e+06
-137.79968827939257,-63.22584293598488,37.862851956524274,1.1073307e+07
-109.93768440519082,-47.83116997474289,8.640590013004575,9.020204e+06
-111.49477096746243,-90.71956634221169,35.29409480584482,1.3786416e+07
-50.64182534437629,-124.12568539378319,1.5908226703388868,4.833602e+06
183.2463180497749,-12.218644328191743,11.225256196171959,1.1598721e+07
1.9904974750977262,136.60708230431322,30.087227734130053,9.342221e+06
-139.55778335584753,-79.68154106090641,23.331694144848214,8.985086e+06
46.305838182664814,-143.00129065841168,11.083541526176475,8.3808635e+06
-123.76464817141293,-36.93113745468571,3.0595516702852454,7.279203e+06
120.11129378832419,136.03044468991988,-2.306221448718022,2.4630436e+07
156.48830105575138,-50.4080427563134,-1.4618082286662308,1.0848858e+07
114.81112846755275,-73.89324870983107,44.401131516207485,1.211944e+07
77.28621408884715,-160.95973068679723,44.338249427555766,2.2489732e+07
124.28939052267572,118.6050704999959,43.811123670955716,1.1467567e+07
128.78680413841244,-48.07482519896652,46.62307170168883,1.821635e+07
-174.8172640021926,-46.87285885594926,9.677936713598445,1.5389605e+07
33.9190696273719,-138.18825909787012,39.53510407032105,9.389202e+06
151.4667878687224,73.30334180675442,38.592104884990086,7.473581e+06
157.88088895326024,79.95132681565178,15.397491609001353,5.6349245e+06
45.69120722999068,113.90422304746272,31.45199755472519,8.206628e+06
-22.272801863646748,-102.29192158216537,10.130092172979516,1.1966584e+07
-134.19324104757385,36.19086358248836,8.786254369452028,9.187619e+06
145.41240621653702,-8.790163590318741,-2.275280900890805,1.13004e+07
137.59577576917718,-120.98916785923892,5.722353487462657,5.505956e+06
88.00238434760013,117.87626478620734,28.70849926537671,9.705672e+06
54.086530436425846,124.55858604922678,36.62251992348748,6.6654445e+06
107.01810986989972,50.30389273846848,12.577418000768557,7.0548375e+06
-6.461379961831909,-111.83262227802437,4.1807387709112485,8.704682e+06
-126.14353523242356,-55.63013219267708,40.38403527022547,1.1929365e+07
-3.1039788989969566,166.03216377667758,18.26063347965419,1.4756266e+07
103.19359848811303,-139.59625419794287,-0.14967624073725427,7.471524e+06
-55.08335261825897,88.79245250019346,6.416048950807971,7.4226455e+06
105.43971016639063,136.26698867093893,33.21737004680033,9.328296e+06
123.89808460010217,-55.42465203533825,45.06589104956927,1.3218281e+07
-32.39042926902749,115.42717503037017,37.618850038269606,7.5741085e+06
-49.92020702253819,112.32600787762021,12.46217774338849,8.803827e+06
55.879720074005945,115.7572537802219,31.698351566844984,8.492868e+06
-116.3180191543228,-127.23491248061048,22.48183824212702,7.0393e+06
-171.9721699326898,17.758711661823355,18.917465283582633,1.9496956e+07
99.07187227954364,98.64415638990823,-3.9414996159936244,1.6276099e+07
-56.83953311271343,-112.90824536408022,7.173875197907658,8.765883e+06
-77.03575096509132,-167.67692865137224,36.244117442217416,1.1010606e+07
-109.63649052166117,-82.73498103941334,34.76668569105156,1.4279587e+07
-157.64377508970966,81.83304228631414,22.74146831287338,1.774267e+07
-109.65818860410339,8.673567183836411,36.3005756498747,1.3053543e+07
36.43280913944125,127.15973191975303,6.008185994618685,8.072181e+06
-39.30145711729739,111.28617330974669,26.378110786759116,9.902697e+06
127.18879153453737,-111.96344173747063,1.947923121172825,2.8023922e+06
58.0745510845291,-83.79526839746757,2.384959624863543,9.336888e+06
-169.87405703086634,-27.854519340917303,22.198126264900896,1.7268202e+07
97.56492730871582,-40.181378423810344,8.60748407925195,9.664621e+06
80.82561347904561,93.96248004648504,17.541207422127606,4.277964e+06
74.838939012597,-133.56714204368342,8.26776882947358,7.895334e+06
-124.67503177173955,109.41348073594897,3.6795160687280073,9.638672e+06
87.17867229876686,84.07125548524863,-1.2159804602476798,5.8363455e+06
-162.0191704242305,35.84653761028642,18.744012331616293,1.6377513e+07
-144.95196035879815,49.21816007694164,34.498078743772346,9.964303e+06
24.65084590077936,-164.54264269755114,12.908690047066596,8.3448385e+06
58.28401092444978,-97.61611637729088,32.92659950240852,1.1297462e+07
-6.798184450315375,-139.18239136744887,28.542917751841163,9.832584e+06
111.03330616493496,-72.1603827051077,1.8761223409187877,7.307859e+06
-95.4785819813087,-92.27084617781252,6.518135584938972,5.690604e+06
-141.82869278446378,-54.867003169793634,0.731482235638515,8.3800945e+06
60.91821281766813,-91.51414197492116,32.692057703476536,1.1241035e+07
21.794358249415467,113.90600352052434,45.836081398325305,1.4931579e+07
96.31109426202721,-153.40095795983007,29.58172271924342,1.2159447e+07
-116.29866978734312,-9.89878811064321,22.480038988224337,7.951622e+06
176.17646834815548,-22.42795512926773,-3.3501085572084204,1.56032e+07
-101.43807704782542,75.59176373102804,-2.412488937405356,1.3896996e+07
102.3078729002097,12.811702816321372,7.346758733110235,1.0959816e+07
-57.46315994763999,86.59407021569638,26.732614752306088,1.1618729e+07
140.76641670372214,-35.797324306052275,16.289018942843107,3.647501e+06
-39.2568817777705,-174.83435048098175,5.660079156371365,1.6984532e+07
-91.14105209790316,57.090922412074114,27.46279160429393,1.0753079e+07
-3.087267466496911,-121.52868487414699,13.70858611773679,1.0838504e+07
29.31042222377977,-143.3438210520692,18.97720653909533,2.8963032e+06
45.60692482391585,147.65190238856513,37.43300849772076,6.360802e+06
129.68270009414323,-131.0533692403656,32.01451713580321,9.962877e+06
-59.2748116980506,110.58999287712356,26.155631121909998,9.515941e+06
77.42840910318824,49.957561918620456,-0.7433289593723568,3.9133868e+06
163.5322374842296,-30.44757862238282,24.047233597137154,7.7894245e+06
54.189409979244374,132.74627670359445,30.11564495622781,7.713951e+06
155.399025826225,-19.823000185869148,28.089730088702833,9.338296e+06
-47.6845309258577,-134.8823351575767,19.11997273238848,8.549451e+06
94.41867191087368,89.70424446964557,3.841967199719592,3.4911352e+06
-40.96297749745008,87.8495012879714,42.8495592441405,9.243652e+06
-52.21204251559297,90.49943245031022,21.0633245906541,7.581105e+06
-146.4175356953635,68.250077025476,17.436345522740346,1.2989967e+07
-87.21601268858588,66.736584172699,5.681337301638952,4.1598202e+06
-125.88060855605562,74.50006108560405,30.378323199550803,9.442688e+06
62.07381136583234,-161.09736512612966,45.77340063216657,2.4171278e+07
94.4670858033146,-85.0075712825332,38.92193720190539,6.313381e+06
124.91660357407477,60.259264445736505,8.197624472695601,1.049887e+07
129.8987134772587,-82.83750486712505,-2.604040327145071,6.9889895e+06
-75.96747414879546,111.85345182221799,23.88295238024598,7.5133665e+06
-110.19726794163533,-33.260113783524105,35.191907136334365,1.5077553e+07
56.530565116744015,121.25033119856472,15.067408319780663,5.136059e+06
-154.96831152824436,-45.998838767158475,-3.603733575552842,1.1091041e+07
-64.93645643843794,-120.3262008646154,21.138852868407408,8.1322025e+06
-168.12206885982843,13.94402432980496,-3.5811624013622914,2.6610436e+07
-76.9554067769798,138.10092504984772,38.009404605732925,7.1890005e+06
147.2550614455838,88.48162694107191,29.644905600435337,1.288271e+07
133.7311813805522,83.06455650888063,6.819708680107683,1.1087399e+07
68.32681074465586,114.26228029059779,46.85150009337599,1.2941042e+07
-98.10959425794583,1.1983655791609351,-1.0595428496550148,6.204575e+06
-101.60284988533327,38.43195568205746,9.025860644268139,7.102513e+06
111.6029244448639,-74.25189538446392,21.484268153021713,8.188934e+06
69.7155043095434,-95.87337333183052,45.03310352351775,1.1321166e+07
-86.06388482490371,105.36693251781325,3.494833964497748,3.7878165e+06
178.32064985426342,26.99127793578694,-3.5650725727654273,1.4739357e+07
-98.85775866381064,49.975411620703,4.804325851464536,5.4827655e+06
-14.660700090988712,101.86748512015112,32.33299900914158,9.826818e+06
142.98713121837977,-64.4683422199904,-1.8853316219596972,8.420417e+06
-31.43166675680078,165.94770142427154,-1.6765382368141408,8.951651e+06
15.793174678043044,127.34653599487,22.82161300643231,6.843376e+06
-124.82261331285657,92.63570379589885,41.94817705879013,1.1138114e+07
-71.19200596402791,104.21382121118342,38.730395076219,6.7423845e+06
-50.28044226769447,162.18964212919593,41.67514825347098,1.0671359e+07
-49.05360199950928,150.68971241886806,22.34747880388852,9.97872e+06
-126.14766291988362,-72.47134162332527,2.524218783912748,9.281153e+06
101.78504368522027,85.71046915112419,9.101060862102525,7.271596e+06
11.969841362559862,-155.19759495440644,19.773756444543935,4.2454975e+06
146.08319657156244,83.86442990653569,12.458719123728404,8.838189e+06
-55.3038777880829,127.99696197916359,0.46452796663122625,7.599417e+06
-111.60479112274686,-35.01998480797698,-3.9884108515923584,6.0859895e+06
-61.88180606161273,-145.93821179480045,25.161928923014873,7.146492e+06
-90.06695343618847,87.94360035599595,-3.2789178680450553,1.4590612e+07
180.1794367384383,-30.200749141633654,-4.147150295250829,1.6427761e+07
148.87838458947857,-59.80544131083917,28.199743993853378,7.436284e+06
-130.38348069975174,-21.447887389201412,16.31208748069011,1.1519809e+07
102.42956763654792,-118.75265870241596,15.588029282960434,4.7877635e+06
162.2631605313108,-4.3983878879479335,-1.84411913703156,1.3596059e+07
75.32206116408281,-112.38323052212,23.59486469867625,7.72415e+06
171.10408637996716,-78.82259418456653,0.4816440360081142,1.0930522e+07
-64.35959636957921,-94.22460662890995,13.449053303577651,1.0743805e+07
-176.0482232904395,-33.53332486205116,22.659768973792755,1.8947626e+07
-28.77788933076965,-91.72254934323534,-0.6704894474013144,7.751836e+06
78.47603528812306,159.85118894953388,23.791903976771263,8.315538e+06
84.4777875567101,157.04255127875666,34.197816263115286,7.4400175e+06
55.97214357230036,-105.21985479284525,15.419816774892622,5.513732e+06
-173.44869205723722,-48.44729533246439,20.727990152047298,1.8809742e+07
-135.48906161928142,23.844779088739358,-3.2636068203584876,1.7674342e+07
121.1304357248045,133.03690779677567,22.183649718113557,1.185579e+07
157.21355883790113,32.88761212678634,0.7328413990191339,1.3664698e+07
180.43262010912912,-28.26304001544889,-2.5371620053577875,1.6409144e+07
-58.105984782194206,-119.08569907053933,3.0601656518957747,5.2735105e+06
97.91302496889978,89.83045926357181,27.880216054986573,1.1211736e+07
97.34904748087297,-31.184604156521004,37.99190811618756,1.3651771e+07
129.31863280495276,-124.13955896774773,0.8730089746408708,4.4260895e+06
170.79447610825378,-9.779025383669534,19.190273294986845,6.7297895e+06
152.51966494812825,48.94050145913522,34.788770048527645,1.0705681e+07
59.91755910045515,-159.51571879949947,40.00875552852765,9.414674e+06
31.018227981625873,-102.72926972505556,31.89199632674508,1.1199368e+07
134.2703692689222,-133.685368762583,46.89492261377846,4.738128e+07
-143.6882866110863,-59.70698785616918,45.11578108516669,4.87831e+06
153.04889158668453,3.2117270343284474,20.11434265226133,5.9740635e+06
81.20306868014342,-85.29136355482167,39.18958578489835,8.58586e+06
70.69257576812328,-160.80816320390582,27.25518252874926,1.3102677e+07
-112.90937114036605,-136.89411457725026,-1.111252722374832,2.5983464e+07
-14.177594895775144,-155.7425072161243,38.266520736325006,6.9474355e+06
-119.98799093115053,-14.620149539209223,41.42899088292487,1.1864481e+07
-137.8769356687418,85.36683701748046,26.73409777882793,1.1897915e+07
-96.20161965818355,-36.99686450665888,35.50017531620923,1.6136221e+07
-68.90868064231213,73.31369657211314,44.75529114825252,1.1310756e+07
43.21077735976564,131.1262093268154,28.366248091004774,7.3680495e+06
27.539028136097954,-132.38489273471382,-3.2444267855732773,1.4718346e+07
162.45869461042759,24.777374626075556,37.32902624789092,7.0526435e+06
-77.28889087047853,172.82667243177792,-4.288115203466872,2.0379798e+07
-151.75479308792515,21.809231560188948,3.648222295068785,9.323951e+06
102.80788941148182,-146.64440971887944,8.717670298009981,6.5429015e+06
111.2091026184413,44.289070159446226,27.55552527763545,1.3164157e+07
-137.20359667702934,-107.84229819034454,-2.5160447238469725,2.5872834e+07
68.10979323291207,73.93171717548478,1.175261686762508,4.357492e+06
175.3052201850822,-12.460889154696105,41.83638807852569,2.4642186e+07
85.55474559229481,-144.36163529570538,47.00291280249884,2.8443488e+07
-121.65371254866794,-116.44788107653041,5.992611669626694,1.2515235e+07
-68.75815245969247,154.96678698047998,33.69620945672096,1.0366051e+07
26.858152710859482,105.91398838503471,3.185976104243451,1.0071145e+07
-154.80329014939954,80.3776144367389,42.755053549370054,2.062563e+07
61.50111687238592,-92.91086715209738,32.82224823483495,1.1247358e+07
-83.91989712203163,137.86719829257805,42.675463866109666,4.0301878e+06
99.78582477043699,-128.6924894558784,36.98047560789339,6.3187645e+06
85.60669324868428,-49.5461746745344,29.597016112607157,1.1894657e+07
-26.94283334964561,-172.33000058353002,44.477857596719396,1.7428634e+07
156.80225527465058,-78.71435881619533,33.330033738010954,7.1684975e+06
-96.53301152007812,113.4830361511091,31.772912646778163,1.0831886e+07
-163.85972445472242,71.37832471073892,21.09849104776252,1.8520768e+07
92.09906409519272,51.934634381713494,-0.9070127050825693,2.477397e+06
79.69636954602618,85.78342229675741,36.5479059607607,1.2660356e+07
111.40882239764255,10.087892384715133,-3.6437740718472127,8.1414975e+06
184.53456674567718,40.62225196025517,0.5627329829380325,1.785586e+07
48.58165726915939,153.2015290464035,31.718853804073383,8.379802e+06
-119.44677204424958,-132.52859637982255,11.30365948170688,9.183645e+06
-143.53055617671075,-11.692972124909971,2.77184762106687,7.4807335e+06
-97.0974583048612,-98.50218714562872,41.01307841916166,1.0600169e+07
93.46802809299862,58.674673506990196,-0.5094388839270864,1.724083e+06
-129.5139528467343,-49.44732942697567,4.949900547244304,8.04417e+06
67.95590224296791,-162.17198309086058,-2.820695485183939,1.3688152e+07
-0.5069817738490769,144.44732807880632,25.311089123729925,8.603572e+06
106.61194633426601,82.40613026778675,27.244440287705572,1.151117e+07
62.86237675257013,-139.7652498933861,37.37935685290958,8.047625e+06
-113.40895508762658,90.2855785679572,19.594512716440235,7.4892695e+06
-45.89958841469155,172.2677604026391,12.739784677085616,2.1264706e+07
-153.53162420007024,-62.48849295282258,28.1521829140695,9.307426e+06
-16.761520080137558,152.0968607978516,40.16314484428885,9.784156e+06
-128.55290259319372,-99.9403902886069,43.758730186865925,8.812675e+06
92.13513059209055,-83.35905877675351,30.96914971744468,1.0706563e+07
71.34611919744384,83.8058056160699,9.888741668143988,5.817821e+06
-116.7163337612787,-49.093252068276115,10.503448986393714,9.549073e+06
-180.0995692949723,-56.2519660175937,47.228160324656066,1.698224e+07
-98.83062129430473,51.09700371746945,20.119203820900566,4.778603e+06
-149.89602823640814,-102.48574392264489,44.374088920636375,1.1247915e+07
129.53969914187923,-28.769187249016287,35.01800158299015,9.839127e+06
120.19383202930509,-10.133488836751383,32.06107513702204,1.4360942e+07
62.395846483135074,-131.1132855836945,8.647023933290185,8.89077e+06
86.07762700039325,136.3568488931059,41.896345028343646,3.7998118e+06
-89.48644503084404,-147.80579773379884,23.54525400876716,7.942391e+06
-110.93210851757668,100.60058292692872,20.433990580822567,8.500744e+06
-149.90142989582614,-77.0341561303793,22.342712555015176,1.0739072e+07
158.85869183217613,-23.9743564414793,31.78516031515672,6.4381115e+06
13.60417762482578,168.88075567910528,1.3816788892968233,1.2235833e+07
166.5791106653753,34.25547761497802,7.4357825806057996,1.4166754e+07
53.724268281946365,-119.36757600258692,24.776544336919546,7.7729745e+06
-66.31688968205503,-125.8836952613024,-1.3494321979996062,1.1704772e+07
-37.742109812293336,158.64290650636457,35.259590642294256,1.1919891e+07
-148.92109185699894,17.68243461404529,27.78762987451565,4.3591295e+06
-136.88380478113183,58.747304218046445,20.474455735885503,9.059395e+06
-132.42890239184692,-28.847266208415107,38.0306795493303,1.1854321e+07
151.5019936086636,41.56005341135375,43.1036870711119,1.0137287e+07
-9.155268847165189,98.03783152180785,-2.789920624742826,1.518767e+07
33.27130734712273,-133.60504200413465,4.677492240579788,1.0578411e+07
-58.09103093653386,142.8957728854889,9.561880478857395,1.4614415e+07
102.06794070723525,93.38139814327997,24.99617854241528,9.179854e+06
-14.523489307220757,175.13367215958573,28.326249800036834,1.4695453e+07
-75.65566327544917,-161.35342532340778,28.761062378401896,9.599046e+06
119.93240542684403,-61.825901440324856,27.71123061892424,1.0892077e+07
-14.863763722807791,175.6833187862813,13.61648049734941,2.0157758e+07
-4.835902815876949,-128.92363238616494,9.38395052990733,1.2504391e+07
63.81739947836065,-71.93376098567285,-3.868542647057359,1.561191e+07
-56.120726129954676,-168.36796811909034,26.816827321631717,7.7636585e+06
-21.69421970392699,114.73213191222993,6.845332644232016,1.1260871e+07
-119.68964869873462,-16.9502051296663,30.39364763666121,1.0778527e+07
43.71044783229564,-97.61376857737037,8.721661477740124,1.0888368e+07
63.482116213451036,154.95415506363577,38.684341004611895,5.4205105e+06
-159.29778537879605,-80.62637726636387,27.089737479164228,1.1511514e+07
99.14517956832003,-7.213992961871497,-0.8949541080330713,9.5637e+06
-79.70081180605062,-154.75042669308556,-1.9921599431018773,2.0318712e+07
-127.50845829791935,-106.34417434045736,21.13203967489962,6.2666165e+06
-142.9874958659509,91.18455740602889,22.156597040644634,1.4465655e+07
-133.5942841796816,78.38758762351455,43.17183299073061,1.3014651e+07
-73.90078102859343,135.24358321048902,42.625235433213916,3.988009e+06
-170.024783654845,-71.19366918111481,31.66777030267781,1.049289e+07
-87.71245640138558,119.5664798995993,1.1142682661377736,6.3561385e+06
27.341000055365864,122.15310477741241,-0.9114378198991054,1.5282622e+07
-94.15315754383471,-145.49856574046674,45.34451270159314,1.6312587e+07
-165.49084851978262,33.16620802786878,35.74307566532679,1.3498152e+07
-69.92475237049126,129.55902795807515,39.88622563451809,4.8735125e+06
-91.6253207294123,-16.19912027986348,41.59699572959887,1.3120426e+07
171.3355051738252,30.42299484931212,38.780838769843896,1.0860448e+07
-129.19453415002874,96.01336186720437,31.715336132843163,1.2844665e+07
104.49050326860987,-141.4569286281909,-4.8510757476923505,1.4592296e+07
-42.26420421644471,-179.50512926465856,-3.4836065075053417,1.2705998e+07
95.6936297486132,67.15987673086181,37.744456721051996,1.4270931e+07
100.05526809711431,116.76299919095618,43.97450915383961,7.222539e+06
-97.8452747875748,-143.60995782334498,15.05159401314668,9.429116e+06
-111.07413982499317,-74.57186625600252,37.24960511880672,1.4352686e+07
-142.59977042590455,-116.88341330813748,37.88826260040092,1.4012616e+07
91.05920765895257,-62.49787738213745,19.30440125869951,5.679311e+06
-54.12890275012296,-78.37296417554383,-0.5836427379652772,6.8433525e+06
158.8916373599863,-50.70156432981304,3.0214751087594656,1.0079188e+07
-180.39403992281336,-31.65449822161685,4.133840910685767,7.720993e+06
-42.61239061182894,-114.53730214994194,31.348749219108868,1.1426677e+07
-39.231666556393776,-115.61350342738908,37.84214164147678,1.0468669e+07
99.25248879115503,13.796161181602201,2.5411952417444414,1.0207703e+07
97.60701391487186,105.98901846669526,46.72171049241751,1.2033881e+07
-45.687368204964116,123.82288625959785,3.998123038873347,9.998398e+06
84.64587652238225,-158.0101134938154,41.32541475846562,1.5280052e+07
-51.036043414415644,132.55112203565062,39.31099629659362,6.4347815e+06
137.10560355554185,-34.74458949555296,1.0074425246332412,1.0599067e+07
-120.83583697863872,-127.16602325263007,-0.743637303489894,2.5111582e+07
98.57340503368516,151.88273855871785,47.478890976189014,2.5001406e+07
-86.6933190581006,-47.9699690144337,-4.013748273804286,8.729755e+06
-41.78363424970746,120.25237659544865,46.87920156158716,1.7071554e+07
107.34180476413411,23.93785378674025,23.879460974620724,9.377837e+06
104.4879119315824,-93.84595298979067,33.28121916759878,8.026122e+06
119.63463109537855,28.31244108961971,-3.093108392650215,5.7920555e+06
-87.33130058556017,87.45712221004294,3.1970086242550133,3.27872e+06
-147.72800368236219,64.6320509865593,10.861328915852475,1.039418e+07
-44.024240629999554,-114.62295305480005,2.1303391386274617,3.8640435e+06
-88.56257401064718,71.7110077017179,40.30481655290171,6.91954e+06
43.252722198593915,-166.21768685319216,8.192444250491837,9.904687e+06
150.15781544822187,-69.65210298420735,45.5451470215474,3.2688136e+07
45.18967462956107,122.92358965194154,-4.632855201194573,2.4099066e+07
-63.66065658295855,-132.28159014794238,38.28327155537525,8.1423865e+06
-149.4918251966014,-88.28716344141387,16.59092717853293,1.004812e+07
-36.4458190419403,165.28761480204037,1.6767763017107287,8.998084e+06
178.35416675724287,-22.351512690244476,21.272009641527404,7.699865e+06
71.13908993818802,100.78460014410145,43.58531272108904,9.320792e+06
149.10288334605002,12.153598654698214,7.22945906863157,1.233547e+07
129.14110658318833,62.9604511413346,34.52932958962207,1.3607318e+07
54.642647637989626,-149.36085676874472,33.712597424275124,1.0873652e+07
126.63941102016396,17.608645161979865,7.119615014033625,1.1704133e+07
-95.34828027621005,151.76705413471143,-1.3597410908920144,1.6216717e+07
-99.59166900738427,-51.74981472271322,20.5450180548566,9.827914e+06
177.84979632953684,18.73160744304397,8.984532810186192,1.3842422e+07
44.64385870377424,-149.5861384783876,35.474337710706,1.0134332e+07
144.17842226005075,12.802600979750252,37.49612979034476,7.345244e+06
145.23194196354,-1.474484549384897,40.85114787588895,4.217947e+06
132.62123527304908,120.27639675992583,29.894333068680332,1.2676473e+07
64.90437605567371,-127.08891116757508,-0.34104849975457063,9.456795e+06
73.61919229643519,-79.08814814446612,40.987888700228595,1.0013139e+07
57.3619092175228,76.2625955408401,42.396863802040855,1.4410613e+07
175.90849775398897,-43.949292824667026,29.500155143748636,4.1623925e+06
143.27064595690564,-6.624611761354032,17.374431345833862,3.1372452e+06
37.7609615309226,119.60644839686836,31.287340959994786,7.939657e+06
66.46021870369157,133.84695627602486,39.96567743449943,3.0867752e+06
96.87505703217869,-135.34323109699608,40.101636293981635,1.0393221e+07
1.6447084192525665,108.07401688973874,44.10837605969766,1.261261e+07
153.19455858103498,38.54625715690503,17.44244351617909,2.4541395e+06
-84.40589349934146,-36.322293949123804,45.524616917980076,1.2164912e+07
-147.48010735920695,43.39146497473217,29.473589879335005,6.8172225e+06
-163.3526844470361,-59.02769145136424,0.15439673857806227,1.0830631e+07
-141.1518671642504,42.07060303567371,33.77139114393357,8.2117365e+06
89.1688879873198,13.083200389303329,43.69148485638541,1.4702358e+07
-78.13791991381338,75.99824131766002,28.129814830858678,1.1775845e+07
63.44016847166171,107.14403606463998,5.7595764883770855,3.6601808e+06
-173.49204126050694,-66.22678301399287,43.05787133208613,9.80701e+06
-118.95624331348667,-79.70403891095104,38.05346058010739,1.3170596e+07
108.99618138686002,-56.87828512780615,9.008198594619916,7.812619e+06
111.822384729624,-73.26093286643717,17.941558190327136,5.9642975e+06
52.79663066446628,85.8743744233712,27.52489677749228,8.1162925e+06
94.67986300047295,60.99735451855502,11.67459390557395,7.2611415e+06
-142.12763037028543,84.63913288388653,41.04593579444595,1.5864305e+07
-145.62725874432502,103.78415493690113,33.2462654406079,1.8639072e+07
-177.69461949820635,-12.06916460012414,8.796554467329958,1.4146659e+07
33.356546767198495,149.48599886776026,8.92313898060493,9.056711e+06
78.53564985663752,-66.47812785284506,2.9516612346565796,9.440303e+06
-53.932499373415254,159.93391906662265,33.15315244621801,1.1538322e+07
-17.78937967382919,177.30383439858008,45.92168566800314,2.173497e+07
39.24518974919678,132.1375777147332,8.47600297896101,7.4088565e+06
169.72013838425698,54.058904740353654,7.015125622908639,1.4859096e+07
-21.97123439904658,-127.43766269952438,-0.7171263346779874,6.6378185e+06
62.09808922586336,162.40768313120878,41.451334186212684,9.085676e+06
-49.2734404281299,100.39525424954438,11.680962754345178,7.3146665e+06
85.78221363805102,95.30132406303068,22.29167493896505,6.189712e+06
152.1904487704454,-23.65660755309716,3.39761900328961,1.2090563e+07
-103.81798264099253,-85.92215516992634,26.248778506439674,1.050262e+07
146.52707834206467,-29.22723642526813,29.71321925194297,9.657677e+06
107.59601263085688,99.42195463690348,12.477086106185297,6.910448e+06
130.44527574605758,-96.81798990887742,39.840130179833714,1.2493284e+07
152.3629112524992,71.47972978611938,29.9601342752142,1.2948927e+07
-156.2346436649959,-18.25367391196386,1.0527801388540838,7.1993295e+06
-87.81619299561414,-89.03504391294565,5.576404013276039,5.2547035e+06
-87.92790647507375,82.97989392475478,16.813828804347267,3.2005342e+06
140.32423833429135,-113.25725999346119,45.16409032553928,3.8064684e+07
-157.77654776819588,12.209706341153264,37.024188466414394,9.227107e+06
-8.601537030904495,-178.58835091412485,41.76526816382415,1.1329793e+07
-133.28188863333412,99.47769909935522,23.769283050149266,1.3028633e+07
141.40849527753312,84.49440337604352,14.693271140903153,6.3125885e+06
43.0199082944109,-150.90727667426836,24.18978551669276,9.383845e+06
110.39302364698806,-85.97967135741835,43.49374198592465,1.0928146e+07
-24.084220926037403,-100.88130473248661,30.602892016998474,1.1139133e+07
-88.74164787566912,-76.69182461459694,1.9065996744902929,5.772422e+06
25.22982723891235,-185.27519550342367,0.19171379858093054,8.490236e+06
110.07403362778302,-57.65749602964476,15.35026037325894,5.031404e+06
146.2727678027212,-73.09287507643995,45.20769387324858,2.9972394e+07
-98.36392289832108,-93.17827771516542,7.281883474689913,5.8254105e+06
114.93499798304349,99.40175972616015,32.47796218544996,1.2475056e+07
-15.090106572986345,-104.88084905337223,20.092503267730592,7.4323995e+06
100.21993674371868,73.9001153090407,34.16794938050446,1.4442074e+07
-40.49129729241034,-94.40622292026677,41.957446518915575,1.0223541e+07
101.82787790970747,-30.64315422538874,10.79717093843032,8.506658e+06
-155.6851264391641,72.42469255031466,22.384976322862276,1.572012e+07
71.88434161846578,139.92866926662919,46.25300654049243,1.4419728e+07
49.49360239000251,127.42073174126807,42.513841881456806,6.3966035e+06
-65.7265202263431,-162.83919322777018,18.949092980772203,1.0199836e+07
61.9636657199041,-91.0757611377226,-2.277561999723678,1.2405374e+07
143.0308642677511,-54.24630899852173,26.00177013602307,9.281758e+06
148.84008330828294,-25.872444863549102,8.512532588545321,8.502773e+06
-161.95978242069012,-38.59201910292987,38.498727545357305,6.883062e+06
26.55686450598262,160.56305905374495,3.203352031926408,1.0718061e+07
60.491544544590916,-101.21839963529271,6.733970836808553,1.006815e+07
48.56165214385365,110.80882973085507,24.88863734005817,6.4626295e+06
-147.64514948401697,96.59484146447011,46.5961736671852,2.177419e+07
174.58599496233933,19.34247465197845,11.907871960876125,1.0379156e+07
-87.72938097911992,81.23172027698553,23.30639094961368,7.245104e+06
87.63947589095739,-108.49591628189086,29.11148021382813,1.0304561e+07
45.30216578415542,82.69977507320715,43.05955964322573,1.4332616e+07
-134.11753663056732,-14.840085519263624,-4.471856589155936,1.1197793e+07
169.20679011193016,-3.931083044298902,32.04511012020231,7.1690335e+06
-77.57623326352952,148.00343540154904,-1.7976176043651546,1.1226691e+07
-25.87066194909457,-108.91359603978103,43.57444991900708,9.952116e+06
-34.20890637703721,96.28171246304646,16.18100080684194,6.2604505e+06
-124.62759392058977,-59.106103962446184,42.392994101327325,1.0193485e+07
33.60677929923233,-169.46567104541472,8.514024663946653,1.0606753e+07
0.7326625399474267,173.2770865114025,9.928209307936626,1.7179608e+07
169.99294277702927,51.436285356686085,12.693985378786287,8.943929e+06
-176.70007842385553,42.121368980073186,38.6780517508815,2.1924132e+07
-4.9450717461622276,-165.7132941705345,-3.6256373610593737,1.0087378e+07
-94.58719340820548,146.277138480176,0.9940614643384584,1.0845989e+07
-109.82873084404807,94.06515704319645,33.40423832195402,1.1112025e+07
-48.70393205022759,147.7657283110138,42.90652601742034,8.360518e+06
151.15167948268493,30.009845107394767,2.517434359237062,1.3873437e+07
85.33565058360853,-89.32608584563985,26.61439879786465,9.531248e+06
-99.23123933063987,98.90240979892934,26.848370692548063,9.130407e+06
-94.8284734915493,-1.9164987270973768,14.742266618434314,9.617714e+06
140.569139615955,-64.63613795891047,37.82469195270919,5.9295575e+06
12.420188401424411,158.578076201096,23.653347132128133,9.763915e+06
113.89984705358353,-142.34386626965158,7.0706788708838655,6.813633e+06
120.41181179242585,-7.950626399070786,4.974507753917135,1.167144e+07
-41.70331055289398,116.82031831820836,21.924201332353096,7.232041e+06
160.8364445451005,74.91872813104197,8.328494639841072,1.3318912e+07
46.738429867992494,84.56605743936223,8.421475374631816,6.3816175e+06
141.11942121142908,95.72758527426544,-4.059211236584868,1.6416993e+07
-118.73347796542389,73.5093394074546,4.7201338472019705,3.500182e+06
54.16018638401733,-97.97141118279922,41.47717659207399,1.0348143e+07
106.31785448076585,-46.395577051489624,13.112343490819516,6.2025505e+06
70.22938589427503,111.9015332162814,24.258538216135825,6.6860785e+06
-111.00801107879138,46.239557346613765,15.623806434381136,6.035763e+06
138.99208645617477,118.08056405427884,1.5714346310042635,1.578244e+07
-85.68945127945149,114.94143067811069,32.58481880351311,1.0718638e+07
147.8880207270954,110.78335698911508,6.580902594028643,1.5959592e+07
-41.69053996385023,-132.38585074359543,13.36573898404072,1.2328386e+07
-144.37692331788327,86.38164478678306,26.911754985753877,1.3958744e+07
-36.64822848091211,-156.24413889510407,42.9727375311133,1.0031042e+07
-89.70126921826616,-69.16504527154098,25.241993515799525,1.1515645e+07
-167.2473040430582,17.033641907787313,21.32856341254396,1.6996844e+07
-145.25825414752381,-35.05239322636541,18.96728769888877,1.2623405e+07
-133.7389365968983,-13.122691457261395,40.141367614603396,1.0931031e+07
-159.14709964216848,62.38501559013809,12.132090534675832,1.3201161e+07
-94.12831814665398,109.6719881383388,33.676299005707506,1.0760308e+07
-97.48409182988583,-0.7768286214721343,-1.8646294130698813,5.7362185e+06
-90.18462330674039,-158.0024838071246,7.092951305079259,1.7365622e+07
154.01072630106194,37.06100386363255,34.02815148748404,1.0769859e+07
-73.93085804517172,-141.85640793536402,28.562563242937962,9.085463e+06
125.71329366108927,-62.36490645925966,5.977105216165841,7.132857e+06
145.51720572806335,88.34694032462312,8.045876917069968,1.2463747e+07
-15.27213446466641,178.3258464348744,24.832849973467738,1.5671638e+07
99.27996416974707,89.84682238669342,15.713365699511723,4.785455e+06
-145.00574526978656,71.83470631268284,13.147963391281094,1.1589378e+07
53.05326528403279,-137.1993108091076,1.1359081584846753,9.348667e+06
-96.73631281462866,-75.79676450139692,44.978154597189274,8.899568e+06
-56.271999235682955,165.63799198745767,23.52769079870885,1.2639369e+07
38.46841026086864,162.6024773439126,2.645104708595703,1.0710776e+07
57.34680656605349,93.2736032943642,19.04758684205043,4.7876385e+06
16.91070841745912,119.24752760800448,23.34315853237756,6.8721205e+06
-136.4365910801073,-24.15345159968379,3.5633248041212275,7.6740805e+06
-7.648880155669815,152.4244101295016,37.811710221520734,1.0290265e+07
180.0576594106708,21.172468465312193,5.729325437992369,1.6767367e+07
-133.1796240703227,23.125678666316503,1.0772331991766761,9.645442e+06
132.37590636040386,-134.3230892561014,43.32511626909126,3.3751936e+07
-96.86617459510325,9.503615195376824,-1.199615403547645,6.574253e+06
65.90813320925002,-118.35362544555284,30.228196667082948,1.1069062e+07
-102.23702544007725,40.18136341930591,24.85422136288641,7.7418985e+06
-132.44779116540587,70.07350427995681,7.123473264713538,5.587077e+06
133.2377878701841,-123.28434961771303,-1.0836960643062643,5.132277e+06
156.97642601017117,9.795288818233416,7.3531477155877125,1.2610816e+07
-0.39881930371637964,-151.18131194871927,-2.363739275370307,9.075107e+06
-136.11673013626185,-21.15317695990683,37.20117225871633,1.0871147e+07
159.12678409698094,-6.8038640461069235,18.932459386845707,5.3834335e+06
-142.77509059832744,63.85877278457293,-0.18178213283071867,1.8485098e+07
68.86254088006132,133.32626452886353,12.807215688507931,4.378551e+06
100.72446447534713,-31.8908234070428,-2.3959563268647583,1.0686969e+07
74.63451247616774,-72.7320271413539,28.368918036847017,9.839906e+06
-39.73093233987473,-164.38895141321623,36.865746883777035,5.7580025e+06
-108.5238443978743,-90.00764065807583,-3.7654641358515435,1.7718854e+07
-21.584801568019174,-183.09365428953782,37.341624556808824,4.788808e+06
-6.131707553362332,141.60609827845974,-1.5304616319925617,1.4723732e+07
-56.88560501906096,164.09080054629743,-0.9524125927379117,5.869834e+06
84.16610012935962,134.7399475082122,35.043533235422586,7.0344955e+06
103.74761036953208,-34.315880547594986,27.151574941383164,1.2017896e+07
-158.53052804425315,82.89946801983496,14.75543099189295,1.5816274e+07
-77.73251391862664,131.8482356605956,39.362861639937705,5.496754e+06
125.86969033913664,93.48584020220233,28.556549837214824,1.2494095e+07
-180.664541774464,32.22002526424177,-4.423066155694744,3.999809e+07
28.71892470859962,-103.17703236822359,24.27044229354411,4.5351355e+06
21.056821717675632,113.357678033284,40.643134758414185,7.6677355e+06
-59.781104083996524,129.12614756511158,-2.5006975536783775,1.0628801e+07
89.54849189619023,77.5963332630892,23.65690434326902,7.4559915e+06
122.4434684385783,-20.39967074623803,14.592504853604591,4.0930222e+06
128.08853388781586,-125.84962530284116,28.88686559865186,9.323596e+06
169.96189068769445,-27.1770755000058,47.224327138749004,4.2711756e+07
-109.10963825330451,139.43749446031813,22.364774477883625,1.3498729e+07
120.9319820316577,3.9833447448719994,15.51438113859428,3.4710752e+06
-11.723413838134746,114.85886923141992,-0.09816707137146911,1.3261079e+07
-16.864404252049326,120.84541811535235,1.912057623074078,1.2052383e+07
5.98435306282542,121.40314812902426,41.56007181982872,7.651749e+06
48.52231137995054,119.61478517545135,41.175845391767176,6.493113e+06
161.32801193500887,8.701830197198689,0.4303604440810748,1.4500294e+07
-2.2958648130086488,174.56322928594096,5.932713137926879,1.4620927e+07
-95.17809005429515,-126.67260193260876,30.23247329625135,1.1229475e+07
-53.915825007701955,-152.71091395287684,14.717707527675799,1.2833446e+07
-97.39815683263325,155.16675225176994,27.200978027558335,1.1682458e+07
35.774016041947874,167.79771873062492,36.891076609663415,1.1107765e+07
-91.10703462505651,97.41955895888617,-0.8058573054344624,9.571858e+06
150.15326128740287,37.767651045814176,30.195609139502086,1.2962581e+07
114.81670175651077,-69.88890944978112,10.127437498037496,5.9060425e+06
-168.12883697491938,-11.293938885199196,2.0955068513116784,8.0388445e+06
124.57590651176662,101.39140387804359,13.368717541834961,8.2846655e+06
-142.56523758613992,-29.224954781861356,-4.181523775316523,1.0380728e+07
132.98660106447375,-16.09980079562922,2.499533318449087,1.1780434e+07
10.556665001920692,103.43764634923298,-3.0314360316633997,1.674338e+07
11.109787520189485,-164.2862931633138,0.7610494455384713,7.5560585e+06
-95.06666403167405,-54.79379525284407,4.442448864201716,6.653792e+06
100.98357208994145,-9.177987072505601,17.42106708872896,4.4409945e+06
-25.282272273454307,148.9353818399128,-4.591169131785341,1.713695e+07
116.66448092322872,95.68704698050226,-3.564807228812842,1.4216357e+07
-59.12999469381606,-159.06157708872604,46.77951637223555,2.1488558e+07
164.55341194749207,-46.59385217776065,-3.7478824092305216,1.2902717e+07
-75.81291819415532,160.02902353528088,-1.127361486426926,9.820772e+06
-122.19242666506264,50.83030554857194,30.0943628837286,7.568328e+06
-141.80068457319064,-43.60086395600078,18.41638527950003,1.1917427e+07
-110.3383531839436,82.88035701666439,21.12100509242109,5.9860515e+06
13.765579554596913,172.01761194462335,-0.23005969798842976,1.4391099e+07
-167.2177491611118,13.118362106789363,40.1969904112602,1.405041e+07
67.56243857973823,92.6765109350489,-2.383185072856249,1.2001622e+07
-108.82742601790581,-28.432826301571996,1.2209320918558266,6.536015e+06
120.47896232946596,30.331423636936847,2.8791358115332244,1.1066124e+07
153.05114432528256,-8.521169426792255,7.208414090517451,1.1293079e+07
-1.366748288578009,-147.24941924178134,39.68387735340437,8.3885725e+06
97.41792152128312,-107.0711598023951,-0.5289791081311459,6.4978995e+06
75.35972534016577,-143.48709545071608,28.09249837425639,1.189511e+07
142.31396804434098,-78.30841876605352,22.848781660881503,8.626479e+06
134.41450852240115,-8.664236241559394,27.404970447886434,1.239401e+07
68.83673221862404,66.17911536066617,-0.07238359120982474,4.62431e+06
-85.1543612298101,100.75422865530123,11.904006147966715,6.642542e+06
151.46586184322058,33.013482185033695,14.570285432976988,4.637683e+06
-110.79765662539337,-11.26499718910776,33.57141735548561,1.3688679e+07
-143.58545805592814,-55.68502878007671,29.200405220648925,8.563317e+06
165.46497259488387,30.63814648254498,3.6645387268282716,1.5660438e+07
-122.13466203365262,77.54177878261476,45.302056300233545,1.1893643e+07
-46.63976925500194,-139.89581154680323,37.93073230321491,7.2886985e+06
-67.83826902537459,170.99024268709837,6.8759936108079645,1.7784376e+07
97.67083438272431,2.778662103610827,2.15168120844444,1.037884e+07
130.51581815956166,1.693365067090383,23.03267950639503,9.245935e+06
173.92345813515055,-24.710507477893373,33.569646067419434,6.857006e+06
77.20236746527229,-117.27601852709299,33.7978885686612,9.598055e+06
131.99920015125997,-4.254558008073474,23.76059227853511,1.0016336e+07
-148.74846965696818,19.3709732665869,40.52482556092822,1.0964059e+07
10.784429846506015,-186.15987884215022,45.052876173822646,2.3697062e+07
-118.78720613366154,107.10627837768006,15.6277722288413,1.1493264e+07
-49.39630401174418,95.44258662915837,27.646341383745252,1.1569994e+07
5.948620336622611,-109.12895221689331,3.9732934147161365,9.175681e+06
106.00307225650698,-27.33199424587852,43.109310060602944,8.3393585e+06
-60.72109720274123,84.33580849961578,0.5860926170707789,8.2180115e+06
-42.23866715365796,115.58069986751576,16.027392309993207,7.7720565e+06
9.68229250046511,138.71110980010542,0.1381961565454881,1.4072667e+07
-2.3744505026905074,-157.5507914675299,30.58526984798361,1.0634501e+07
62.10827924533987,164.5508462299054,2.847087652874804,1.0634532e+07
139.58695042590682,-13.868554850130863,24.01738838634674,9.978653e+06
103.2976928224043,99.3031881109984,11.94802402716854,6.6561805e+06
92.52533789391816,-159.30251727764065,30.44614062406928,1.2369506e+07
122.6048699435301,40.87424827038416,8.873585306732782,1.0511768e+07
-164.91132909362454,9.834987202392625,22.6117465782488,1.5219517e+07
171.08084180173472,68.07340797851089,41.69294160352358,1.6514729e+07
-81.83116912140261,163.8400049083861,13.888285836189981,1.978816e+07
38.332021852472934,-173.253771790315,-3.983355110283819,1.4729864e+07
56.96515698160322,174.903904267945,34.99443856126475,1.0781972e+07
-168.17701511728836,-46.20828648914892,7.307127320949214,1.1997403e+07
130.43554084895266,-41.645364479925405,0.7297731070780646,9.831439e+06
-75.34754495756731,137.0266222357779,25.10783828133729,8.1348105e+06
59.19945552769747,-148.08600380876968,46.61161167682576,2.2947442e+07
-162.84180850555776,-40.67046844776999,24.284438950038055,1.3266389e+07
130.06088249733085,-99.06276867437245,30.423252234711605,7.0023925e+06
62.9739348289408,133.95029337512932,17.66765322248193,5.047727e+06
142.78873431815651,-82.53662198528895,-4.0194055310446615,8.966399e+06
90.33802068015547,105.28316411672438,28.41583662419031,1.0329823e+07
-90.72993644087978,61.774004146456036,35.76127953402968,1.1115926e+07
-68.95310943865897,112.94399881463455,44.2467099364994,7.6442035e+06
59.72311413280437,-83.2932935791166,3.6183621209626002,9.617505e+06
165.28947039337163,91.20671669635897,-2.3128295491935558,1.4991084e+07
42.607182473275,155.98024797290446,28.34797080449587,8.35968e+06
-109.8119793021414,28.24496628287463,25.94014098786084,7.4496435e+06
-173.1330299028325,6.155216991236983,27.824613556720067,1.3651203e+07
-152.08089013905595,39.163403723163526,-4.807231606045992,3.1388644e+07
-112.58653036940704,-108.88994501812302,22.274176948295832,6.843046e+06
23.817902051779726,-109.35037841069239,32.96277779744037,1.182432e+07
-106.79749050768876,61.87407235726868,7.180241803153958,4.127799e+06
139.62730729870214,120.50790025665401,19.366596647577342,1.155515e+07
-101.69290293079078,-153.77293353486672,1.1121003914639593,2.3475752e+07
-99.07342201110256,55.693759641066976,37.90501672899766,9.948496e+06
-95.04428435538443,-101.1745586105349,16.69195201253659,7.4015635e+06
135.5031783138092,41.03095951022317,12.747291363751017,6.8951005e+06
64.9046236544786,94.82823232647695,39.26627641493792,1.0673315e+07
-157.12708314748838,-59.744030252040346,45.663108422285866,6.2731265e+06
67.04535982068751,-65.07399411280085,0.2616057893589732,9.704892e+06
-105.59641375215341,130.28844075874565,3.75140382805802,9.080032e+06
-142.28061614595302,-64.35191719064838,29.30731668264221,9.192289e+06
-184.74014473534038,-6.333332192054996,13.4802469559442,2.0878834e+07
92.09165234201663,-52.012101666514184,33.07246050756656,1.2960334e+07
-67.8037713619525,-91.54196347977206,-1.0689540710228473,8.85349e+06
-133.31388700058756,92.46830720800199,28.590795937329133,1.2355659e+07
32.07649829251858,147.10529269070935,22.934088756617914,7.025485e+06
152.97661338743086,-16.56176878475995,22.034579233018952,7.8930465e+06
98.59214190907534,-17.552192247324257,-1.5539876666561832,9.9962e+06
33.87060023428265,163.39181539789467,15.229188496570986,1.0533174e+07
-135.56464197808103,106.92822546148743,30.619887358482586,1.5558575e+07
60.95267740455864,118.01348548727373,4.998535858970727,4.1372002e+06
26.57375326542714,147.76110478478557,20.445399336451878,7.8473355e+06
-111.50293894726668,112.62500868120509,26.951160901696934,1.0628412e+07
-37.2456453382641,137.74144082748109,32.25178089711435,1.0483998e+07
106.19663193662569,15.679502406210501,28.42199302350722,1.4032292e+07
107.67708786515408,-144.02455003281065,43.32242962489741,2.4384014e+07
116.83228412677357,19.551896009526985,5.246014117049058,1.1790385e+07
128.73748020201657,-89.65175384279762,33.71673036249487,4.9007545e+06
-165.94871794851463,-12.977779872824158,43.940693430780165,1.2293247e+07
-27.97885440759029,-176.09857866760433,32.45241108707355,7.946352e+06
-23.420607562799432,159.40403092427664,10.057741312595498,1.7215848e+07
121.97714080876017,-85.47401900324525,14.158280655163807,4.3967795e+06
85.2296364527748,-73.89432500006849,0.004550088074341818,8.911961e+06
-19.102453773233435,102.2822087110631,26.68070398597888,1.0157711e+07
-54.65341869914661,-144.6267812557545,4.694206284747164,1.0839044e+07
91.1024997787548,98.0172360998755,45.86763273193192,9.383937e+06
123.47632158609855,122.69971268245081,9.659222351509396,1.229997e+07
-99.71362376103636,-104.16874964784085,8.183398134192862,6.3279835e+06
-101.44120333872712,98.04753646543253,38.646162210536566,8.317141e+06
50.05372065173924,-140.63884833204057,-2.08091413519085,1.2021916e+07
-74.02606723050904,167.84778821131516,37.2608098279361,1.1422606e+07
-17.006973174870467,114.2300971808172,32.04257499047851,1.0014117e+07
-70.23282685973703,143.04545198695718,21.7638574394886,9.399142e+06
14.182005777649122,174.71466261266409,37.07170204603389,1.4675758e+07
148.10990781069148,-55.70326475073966,15.866064692060819,4.534571e+06
27.83708814204181,99.16191463221168,19.724626551115573,6.222194e+06
64.75112303809505,-129.7214461563831,23.365300467949563,8.047166e+06
118.59058972175409,-81.74437331415207,-1.8466153414878854,6.9229075e+06
54.02390474882793,-150.4455043560927,9.952922832111728,8.2731355e+06
-28.646155947976208,-89.70109655204901,42.23010635316064,1.0944571e+07
-70.13124604497966,-68.91589106202844,-1.9151270479367097,8.939608e+06
118.01845284332188,-16.76291501342172,-3.883432535930935,1.0655541e+07
-23.21959810531601,182.79264134962858,34.30800820264951,1.7997482e+07
121.7482494279086,-66.49175632678248,4.171601343148358,7.316324e+06
-101.7797911606038,-38.067755153060034,19.18048944562403,9.831115e+06
86.2095793511537,91.19443530032828,33.061993287848175,1.2425745e+07
-90.87252204264912,147.79922814641168,45.85512448892014,1.1137707e+07
58.45595063227648,-154.19923741716187,33.30868503197602,1.0920788e+07
-85.93381701353925,73.81506436110794,45.028211477586844,1.0247051e+07
36.42915836512887,-119.66206331244548,2.527126104723787,9.54026e+06
0.5309387731736877,-120.54868890365853,29.73353488068043,1.052969e+07
164.0144161999022,-19.15668979263927,21.031725085644712,7.079384e+06
-58.51285575388303,150.35190032180674,6.561183432083597,1.3871571e+07
-87.16736517990431,71.35318269230078,3.7344718490499784,4.0969915e+06
-140.1349992823613,120.27963748642823,28.972757376253064,1.8764118e+07
137.02353671630368,109.58927075073268,28.252913965521657,1.2585004e+07
-50.38837955723033,111.40545229395097,12.400839251078011,8.663159e+06
21.611704485949616,117.96648469167089,36.067478998745166,7.2687015e+06
-139.05692226039213,-120.17436596867097,46.14328377160521,1.6410864e+07
-158.0689828692254,77.75975662354597,42.11652251194616,2.1431652e+07
-112.52249078378038,93.83401502149673,44.806255277190196,1.001091e+07
111.24200888920643,-144.16387896336036,14.8958663633444,7.218606e+06
123.34946736637295,22.738989247323985,41.84595516233234,6.706141e+06
-126.19768638718355,-7.259171999623959,18.489938218719704,9.807801e+06
133.41569034373254,66.73951426995893,11.090254593672352,8.93152e+06
-155.29466008070182,56.7836195405784,10.697598820134692,1.1506678e+07
179.7590614296371,-31.456810031481098,20.92420536732324,7.4548035e+06
92.53122186339226,-8.722438641316359,-0.27336530572846934,9.614095e+06
-94.48025148063968,-38.98831821925182,43.53546405933601,1.2134561e+07
108.44495720343843,7.667750892962659,33.71628903316409,1.6108846e+07
-66.18372102991415,116.11943076104937,30.123285474713995,1.0762991e+07
128.22931868551848,-104.43301423321509,24.06439491141346,9.321686e+06
143.19579094777606,1.594308787008288,38.41607972140872,5.4472155e+06
144.36275812311493,24.21641956226037,45.50169176619837,1.2751554e+07
-182.2195925527471,8.62713264907947,25.852628038182974,1.9769976e+07
-54.93738903844479,148.2287165047333,-0.6853496829957022,6.712316e+06
7.127703031318902,-180.7350827594041,2.387067894463029,1.0450372e+07
115.66158713510208,122.25143727224912,38.910590259391746,5.0959915e+06
-100.79680561297852,-76.22143568205502,22.817799538349433,9.364782e+06
110.779566776651,-53.788045893473054,33.03412946778739,1.1453942e+07
52.440729956101194,-86.66977136771222,45.66148348965663,1.3519829e+07
-15.221822665927133,-159.25577468215346,20.283082208245595,5.873241e+06
123.47936247724186,-52.14268814591364,-3.036347024174738,1.0032369e+07
56.31951547243739,88.43564545504108,3.9447145570626883,5.4331385e+06
-5.395530117044444,-122.14743423586668,25.987537681614732,7.565681e+06
-0.903514282032404,145.33606269481487,-4.869604467929803,2.1949456e+07
151.88379679408257,-29.677040041230782,16.748402402843826,3.990235e+06
-100.16963941017671,143.51651407821737,34.582137069077234,1.0843882e+07
-18.06574699825893,121.79215550292992,42.68244043963558,8.491766e+06
-99.36596657797661,96.93437199942014,32.59140990318074,1.1085607e+07
112.90863343312964,114.37992475453262,21.89858231150385,8.389908e+06
-99.33655307417797,-98.89439571963514,27.310575269805675,1.0777995e+07
-166.16573573531412,16.41636089788784,19.092184978441498,1.770473e+07
101.09108493551099,-95.09773187468089,22.97091776455082,8.556401e+06
43.29108260673328,-166.91362851874771,29.1652470811357,1.2722506e+07
-5.3980112228402675,-149.89780363525585,24.15428110133397,6.6036635e+06
55.697130047175136,147.244104924392,39.54105174773432,4.654467e+06
153.03305183879854,-68.16501237220481,16.746879789809768,5.9280175e+06
-120.53864597846804,-66.20020293299663,37.77583055902151,1.3638363e+07
87.94481767093112,-160.48226978998633,25.525048720387,1.3373749e+07
96.2241993994395,154.97457430779434,5.474639618682019,1.1364488e+07
46.80628046994815,-86.0971798676252,45.64709287651525,1.3973159e+07
105.15788054359996,-118.06042016340491,29.776423246415714,9.396427e+06
51.64011245528823,-145.78270285472996,16.852668922929922,2.8389072e+06
85.23433098870458,120.99756877843085,0.5175892036022486,1.016923e+07
113.6104164210069,24.696805935220937,9.30101758155818,1.0120083e+07
90.44280672777018,-154.64953312611524,42.25808527937405,1.828678e+07
-59.331849157182916,112.93248325882034,-1.5980362214257742,9.659594e+06
-152.61638218703962,-35.45311032132315,3.283254917439575,7.0936975e+06
-104.20661736744425,-26.08259711743409,12.5649515841809,1.0499666e+07
-60.381426681305236,100.76805213072744,0.11787541983675819,8.234442e+06
26.164732630948834,168.25783701467947,24.509497550327772,1.0354014e+07
16.477044043663994,108.25086213850727,33.883650985397004,8.006337e+06
-81.62695968098892,-58.229181394513006,-2.4334290473704483,8.567563e+06
-115.88090166561726,-143.32364776724023,9.750915201674895,1.3345437e+07
-126.71895536073498,-36.462492128315034,-1.8810638375014308,6.260161e+06
-93.3508092541147,135.7710481833858,18.914695585914792,1.2017947e+07
-124.16926600843614,24.937942992349605,11.994324254073746,1.0071041e+07
-150.0025412201988,80.38462927384518,-0.9894427675335731,2.614193e+07
93.06914105409703,-147.4961414741658,21.062888789964724,9.983512e+06
-115.68342426778186,-96.79998583104287,27.713189923083487,1.0560933e+07
-143.16483970120345,-56.81802323866418,6.769404690520719,9.481024e+06
93.1115560087303,-98.87098387977017,4.189407064559181,7.262334e+06
109.25335957458555,134.8575874705943,22.387206074374628,1.0393014e+07
2.6823887083679097,-100.6637631466789,10.78645602743249,1.1937952e+07
87.95170094605481,157.54752362802998,1.5403205878062394,1.6259622e+07
116.6832669403729,-72.43749234837279,27.85098187044926,1.0476642e+07
-154.08064541278492,-61.49369156152383,34.541507470989536,8.233866e+06
-150.40800819101105,16.51804759402046,47.11647689185594,1.3927054e+07
-30.913842332930475,-179.48483493368062,26.264135236543932,7.6118455e+06
-9.989222799380173,-115.2554942747305,43.40794578758743,1.0716545e+07
-139.33931133482972,-44.23598729130407,-0.4655003067353041,6.9918265e+06
-13.062284224313686,-106.62369415455926,15.114392501731398,1.0744089e+07
125.6035116037163,-133.19432923568132,-0.7980500969922448,6.3918005e+06
-2.8410924888052875,-108.55008846565579,4.81728008062877,9.398859e+06
-172.2600308217487,-43.131716005890155,5.533579198070291,1.010168e+07
-110.9360019031147,-12.242878139831703,29.026419228377584,1.1277887e+07
-79.98071808113312,-105.75488128187698,6.604753183090695,6.474662e+06
117.36057829011435,125.22894780866427,24.99113549916596,1.1022827e+07
144.48316007531145,-16.8954903054603,43.903432338433284,1.2218784e+07
-127.7540253860436,16.775384698238184,6.035843027816355,9.032893e+06
-53.41816701706441,-88.91998261199623,21.62932097821561,1.0163086e+07
11.620022262577521,-113.31958589057733,8.526612711921395,1.1822912e+07
-35.23362546128536,-117.1956112866753,24.777103358980945,7.7973835e+06
-57.93379952608794,-148.3478311187817,44.28418036583645,1.1645345e+07
35.76460820639187,155.27644590755926,1.387130146404338,1.2789836e+07
41.98137095272227,-165.143612005361,22.78678528101314,9.263421e+06
49.64549544890971,177.91132557297766,12.968446650705573,9.069051e+06
-159.39396310283564,30.34396831392775,-3.178939217345152,2.673921e+07
111.58554189320631,103.51027624005155,43.06601204991669,5.8328205e+06
-94.83954937012244,-0.7120713476344633,43.57851837859152,1.1474014e+07
145.26798864905095,-27.79941352981416,26.26546704124018,1.0256331e+07
-73.67239379791867,-115.58473301066975,36.487700351107726,1.1497027e+07
-140.3585921919526,91.54104693331834,11.591434229242605,1.1075942e+07
126.9754229289124,-28.38382117185682,0.308955778908464,1.0600837e+07
23.40913171850727,-177.91309403124544,37.27276963104413,6.9194755e+06
3.4150691959947896,-143.4955966014822,3.314045530657342,9.448463e+06
-97.46253990015714,-60.650172776073106,18.554244837370653,9.562996e+06
-113.51368606167318,-23.411513164932984,25.80771621462609,9.534328e+06
98.99756648473914,-37.52675818267792,46.20982869751872,9.781789e+06
-53.13930624493644,101.42300394912765,33.9040647670316,1.0963458e+07
67.74581621376677,166.62807200377927,26.169444958641655,8.436124e+06
-50.50614591115644,124.92927791131456,16.725909519954072,8.843593e+06
-160.91649303159653,-34.060122081747664,27.104478231349567,9.819113e+06
34.21798117827973,-113.53649089339592,13.146430749997503,8.868756e+06
152.2002530385795,-42.95079171718953,0.48286024090988167,1.0806115e+07
136.5234547632071,4.002759217162264,-3.0174813232537243,9.642403e+06
-78.15365953036131,128.94141535113374,21.449117757633644,8.033755e+06
73.8053600899388,106.47248819899835,-2.055145948853231,1.3692593e+07
121.11871470989628,86.72062351655893,17.4912501448495,4.435931e+06
148.29299480936294,27.814429616751966,45.94962371303622,1.6383144e+07
73.32767662330173,81.12477806002329,0.7213695332738944,4.1375755e+06
-145.37671638330517,-101.89096957645071,37.578346865754206,1.20739e+07
-114.64311505823166,-141.5096363281057,8.96110073695599,1.3638237e+07
-5.714195744141648,-184.10165702223665,33.64710146292225,7.5681205e+06
149.45804565659364,-4.994822937540903,32.99057474256516,9.44217e+06
159.8558066395533,-90.78032160729177,3.2033257136989843,7.276658e+06
102.11958418712481,40.91004087753859,42.16931024161741,1.2146721e+07
-98.3770573988858,33.16453754216974,11.325436505609751,7.325537e+06
28.68832451541269,-175.62596195143675,23.600190410713207,9.750963e+06
120.29294459044377,71.23509541950756,35.882679953934606,1.3118063e+07
31.231617905235254,112.86213457706391,34.29730972899017,7.8423475e+06
-23.757892303865617,-157.83925179793576,15.85238134110619,1.0703058e+07
139.95211547967114,-25.84576049048377,42.208832892037655,7.267645e+06
14.140497705240962,-104.91088882848736,46.20471141142179,1.4922516e+07
86.74508030153152,85.69103127411626,39.431314210345874,1.1535024e+07
138.7539014055996,-56.39933716065596,42.585605457427405,1.3606525e+07
103.51973324143768,-152.3217330486499,16.065390266133978,8.043927e+06
-119.4332185358037,62.028099507643105,41.487266209798584,8.939471e+06
82.33953772896058,135.3008204427207,1.619246238146725,1.0488086e+07
74.93361073492969,-139.8797658008176,19.23225562313952,5.934716e+06
162.7567947441375,-82.22000522719117,40.728656435158335,2.8633962e+07
-134.09933855874834,16.567328530444854,34.41343150433951,8.420424e+06
-90.21909541888454,-12.679459979071995,42.09666744248504,1.2681447e+07
-120.85043051399275,-68.98088528082238,43.5534462093622,8.820847e+06
10.155377046588484,-183.2661834254273,4.3621265672005585,1.2621668e+07
-169.73413232373468,-46.559318137107084,20.552670289627716,1.7805628e+07
-66.90663202603736,95.51340362334793,6.828443326445787,6.5436835e+06
-64.62019309669961,159.8001655649768,28.75461743432414,1.0333706e+07
-164.48036237833801,76.35758508922407,36.45271424113216,2.1925646e+07
-70.63103899380457,-101.49516769412625,-1.497741881904891,1.0773655e+07
-8.91942741154432,180.3027970255324,12.031884781366418,2.0521128e+07
133.1385027128564,-0.5882541288886785,29.29817935311711,1.3392725e+07
-161.64047492088832,30.9809807805554,39.933630383774855,1.4775096e+07
102.83534350225511,-63.649780095195275,41.10966041957195,6.4333765e+06
164.08262683396612,50.17593030918448,17.760221768081283,3.705846e+06
99.41009991659234,58.750239792020466,3.7912326941176477,7.42903e+06
-115.59495575435989,80.1874410824426,46.25430984824292,1.2799177e+07
-52.41027261880555,138.0887861912987,30.735914289825484,1.0093847e+07
14.712157149468,161.30029332465796,-0.9967235756961226,1.6119329e+07
141.37033401035762,46.97453498703533,27.018807813915462,1.2511371e+07
150.26984082653195,-43.07225992852716,16.03066248095505,4.072484e+06
-115.98583242620175,35.2855762713387,8.600448250932137,8.0500335e+06
-24.667882578675773,174.6175397134591,35.46615605533598,1.5701591e+07
-98.99950093070827,-62.616425683827494,1.734136618024124,6.315358e+06
-130.9710525709296,-83.63143375967006,18.908668321471634,7.424138e+06
-103.29011204707882,-41.743044845422844,23.529302274934672,1.0267313e+07
160.487017417816,40.60704963568412,20.559433690830005,6.0580125e+06
134.0466188026736,84.50013675317842,43.97862117356185,9.394583e+06
26.132939855118934,-155.8582491640936,18.095434566532358,3.6465602e+06
-24.952064147779964,-173.95364656087966,12.906044967627665,1.4691191e+07
67.54362183373047,-152.92840626151047,34.280000893833126,9.810347e+06
-105.42728932391817,-103.43926607076885,1.4348415432884556,1.223491e+07
0.14639201750813413,-140.83941854670644,8.887672708334604,1.2705364e+07
22.495593003084963,-164.13270278160576,31.104925713601084,1.1727176e+07
-25.030998339689518,-181.23093804895336,4.231408762576431,1.5568381e+07
-37.22044733024768,-144.4783089508448,31.78370944755428,9.540519e+06
-18.61146286875973,158.58945531923496,22.213915398701516,1.1544895e+07
-16.22096559445012,-102.3813670784282,18.209641755952067,8.941811e+06
-73.54527405498006,74.69816765022239,41.66760335698805,6.126913e+06
147.77917224751093,-103.07605918003068,25.518244332756854,7.948462e+06
70.79419245121426,-118.8902199529382,24.56400065416332,8.584903e+06
156.27360703268982,-33.73234879502584,37.45908525000004,6.55842e+06
39.65719794752093,-125.4450456324411,6.01785576758539,1.0769423e+07
157.72521529640153,56.298819087423226,-4.014124327194212,9.623431e+06
-102.61332021644942,73.62621922636055,38.81216509596991,8.657453e+06
-24.365154984365006,178.41822230227461,-4.516074273220093,1.6872058e+07
130.59211277358742,75.32763652859586,45.40033326273939,1.0508411e+07
140.85216423755054,-33.57151677463531,11.150733559515597,5.3334085e+06
-89.16869455762924,59.08289630822514,47.4738362070499,1.688755e+07
164.2392124662254,61.929721055455445,-2.9721975245717753,1.108509e+07
105.2671947991271,151.72823488207973,-4.6148984887442035,3.6525812e+07
174.5072381396297,-51.900908486334515,31.857394803841537,6.5601055e+06
64.35480920225746,138.2193372965437,35.6183828966983,6.200411e+06
121.93049296014158,67.04979159874756,21.400948213895653,6.0840875e+06
25.785945625805965,-101.07355663995911,27.542580476550782,7.8182705e+06
-2.3505461236107976,169.56145456641252,40.12469321824322,1.4065831e+07
33.523242902138776,-149.347113651175,4.774982344389106,1.0748631e+07
113.8493047189175,-42.92715204100688,2.570539155840634,9.87309e+06
-17.49443284850082,-120.47004134131738,36.70905355300877,1.1057428e+07
34.02574549874805,148.10787075651263,30.394475097485678,8.568697e+06
-139.72768288147867,-40.92687166432523,40.392650829796075,1.0002496e+07
-103.43001861023025,5.4932524219427705,25.816887104133098,9.830286e+06
145.08942095596439,-60.62326611398765,44.90467455425108,2.4903066e+07
16.115564435246824,-166.03526648389771,40.361697459817485,8.842375e+06
-102.24984412281617,-98.0618463131449,-0.005077430699822193,1.2631761e+07
146.81157165138512,62.893376090154106,44.41414761665662,1.2654823e+07
-12.47892577574703,150.8693665395573,2.2397156308957813,1.1704604e+07
5.0852060487185895,-181.8067324255483,21.10923547085312,6.379486e+06
115.93132320597834,-7.7950003538249755,3.7442914899205095,1.1637364e+07
105.32288094583329,-58.125878346244264,33.85665105826414,1.1291837e+07
123.83255148292183,14.80368023764615,26.181016104294205,1.2373135e+07
-143.58736295790405,13.280108639951097,24.777211833337564,6.142022e+06
-73.22926773884895,-109.62212758116769,-4.857004979248376,2.024823e+07
164.22577222852414,71.84040413837522,17.379616371843998,3.716794e+06
149.49555265664338,-24.432584277864493,42.22533622239848,1.1827107e+07
-49.20722469640401,-77.94306346029364,-2.1107437077875417,1.0174443e+07
-125.49172040759275,58.092131418831684,39.50889908098028,1.0011789e+07
-12.132335755692083,-101.90985786772524,-0.020604463890616372,7.4952815e+06
177.74247912318793,-47.96151722040568,17.42106668232661,7.321936e+06
-83.75715830255702,115.7374303660884,10.652100208534849,9.41778e+06
-156.65468011054608,-98.13382223833322,33.21317628543522,1.2383614e+07
140.50699570348633,12.883109346762863,3.7402562458397313,1.3176372e+07
-84.74988436135527,-97.99033682457217,-0.23613650003100725,9.892819e+06
139.29173618217942,12.364371985485349,-1.8112865809547622,1.0164128e+07
-57.05264007385168,-93.59332503506388,35.52747480055114,1.3540641e+07
-92.7493461821514,-121.50496607075868,1.2814669848840392,1.298245e+07
-133.18733935864088,61.541778065636954,34.22166802941101,1.0090407e+07
110.6572648564682,-76.72940405967736,33.898590890202364,8.392956e+06
-76.45114764963941,79.9182095779185,35.45309867840061,1.0832209e+07
-29.98105058927743,-131.60112457415278,12.323122213270114,1.2635723e+07
-20.946018688616334,-137.76511861893084,36.822272811738124,9.343674e+06
-72.94600855039191,-104.15157026043435,16.523968442086627,9.663699e+06
94.81272059279473,75.45665709742491,-3.62381998198161,9.186443e+06
77.93654202983555,-97.64555773558143,10.885153017920047,7.818263e+06
-186.3214698188241,9.965447850389666,0.8691258468690531,1.7517372e+07
91.03621045614739,-74.2408817222266,41.71094381438281,7.4443e+06
-67.35370894195202,152.8697051562441,25.717156339610984,9.275163e+06
14.589049763080256,138.2995880252264,20.29734247094129,7.758556e+06
-112.21737859675883,55.49756566163535,40.52771311453069,8.671353e+06
139.8723936350779,90.0717526877749,5.623798338622877,1.2072711e+07
-159.57683900059368,-28.769444981148382,38.574589107138166,7.387904e+06
-164.83185123639936,-37.436101157091485,46.84902482142882,1.0639499e+07
-28.62764777239545,-146.9839642389283,16.973530047082168,9.627968e+06
-143.2214929280438,-116.25305494273901,9.24513506287903,1.2870371e+07
120.43552176864137,23.121941966598797,-4.371250476914988,6.8702945e+06
-116.82488062178602,142.54632628646488,12.563667387664566,1.7327908e+07
81.28859518487315,61.94063273949638,44.106696326290574,1.3538393e+07
29.624545751481516,130.2209407469952,32.71826846379038,7.981528e+06
-132.06660511613526,-6.800031425820806,42.554530511310105,9.980445e+06
126.88782972610244,-53.37646622961207,16.47179652135467,4.7317265e+06
-151.069128682018,-64.51726657935458,3.1158938333127213,1.0342639e+07
-37.394801181406564,-121.94473257673532,14.5750035823203,1.1537469e+07
15.802216225151966,122.75413892647522,15.964259866986609,7.9581615e+06
76.97978342389138,-127.71721493071894,38.87388845983021,6.3141755e+06
41.35663440714592,-141.82982694810642,2.7043267354991167,9.743037e+06
58.64014452596058,-126.16886698328216,46.97824505770561,1.8897776e+07
-166.72987361360043,-18.277632945319368,42.41160083751104,1.1007939e+07
-83.2119558521344,109.30993864045178,32.942028296044164,1.0937091e+07
96.82482089887094,-1.7931341150999458,-2.3491429188022113,9.146342e+06
14.622907901493193,-119.604704247672,26.745484289610932,8.2587455e+06
-101.99874242081326,-62.83312112703373,-0.4271419249386859,7.707406e+06
-110.67324931133182,-107.59616899316411,29.84182898236878,1.1757865e+07
43.530055159868795,-107.51392663990629,37.63991000811064,1.1227929e+07
-29.859335647429756,131.05914992861454,2.9391496430966866,1.1135589e+07
39.02698511265456,-117.69705746222797,2.6604336664226738,9.580748e+06
-75.44395428109043,-67.94658325594133,16.207725812314003,1.0851782e+07
-75.86365250602528,108.80798167473398,46.40860428497065,1.3397977e+07
-76.66294754159333,-99.95415531525613,11.243226912430675,9.052136e+06
-94.50671439537723,82.00294545953642,4.305702333029278,1.9530919e+06
86.19027875837111,-142.37149152141728,33.10712730452749,9.486046e+06
29.71862078192723,110.07381929576736,46.90695706677242,1.6968538e+07
-128.21807942229756,16.307892844371793,46.042348242394176,1.0242774e+07
99.03419676638123,57.92219374580464,0.3840386827499933,3.4178065e+06
-74.29429220781331,-108.0892621142457,-0.3970177311556008,9.588724e+06
134.1282691467258,-92.37335640901003,-0.06843576991819422,3.808474e+06
60.59005162171786,-107.86819726361102,13.150325945054021,7.127252e+06
127.11427853800706,-15.782514858350451,37.337501171606405,9.541735e+06
-52.99586958606409,127.27854449620861,18.606979233466525,8.177112e+06
-113.48933541007739,-145.55985864059022,18.236322069688104,7.383176e+06
-14.021425613035463,173.7006096814153,4.976567733019327,1.4391093e+07
-60.15750430399853,-145.124125558782,30.676897735789275,9.183088e+06
125.17561065127846,-56.686293242359284,29.946540590338763,1.0549334e+07
-111.6775006585772,58.73811832158384,3.3183554089723595,5.0515005e+06
-105.22115231736446,-21.4298088306804,33.433141993045936,1.4753443e+07
-122.83560186526006,105.89243871492981,15.01162437532437,1.1898179e+07
146.5704495889641,-22.412656023538602,20.10754972964962,6.47121e+06
-70.07486922658751,163.17585701782946,3.1207511690169114,1.054666e+07
128.97674403037473,24.10072140098842,3.210115342153494,1.2160677e+07
138.8280763078135,-67.42493236819192,6.989736029455576,5.4670815e+06
-110.09084846708608,139.09698380335135,9.315174230323992,1.4574047e+07
-161.7911121553043,43.16836322228218,23.159299492655844,1.4674779e+07
47.4650255095915,159.17239566753608,0.7682211495160867,1.4564043e+07
-101.0853581013325,109.55622697114546,8.47503047077851,7.48322e+06
-115.2985344673005,20.059307534508406,5.256605017319454,8.3851815e+06
-58.085498293253124,-121.5741540834871,32.76640989200452,1.1300004e+07
159.79433703940515,-69.0359216064679,10.113070396443852,5.411067e+06
84.4036186668933,-52.84696753510559,-0.7431091548911863,1.0039733e+07
-120.72142411230837,-116.35569355100034,24.087034910340613,8.0951685e+06
67.95938720166487,-133.083504216743,20.106102142841404,5.4285785e+06
36.531673041902934,-119.36340246881115,43.421856690308026,1.1370742e+07
-70.19079248716557,127.90675996336415,26.12720673632859,8.2845415e+06
-103.60730815800201,-11.056277609768188,1.4183268482982467,7.146756e+06
-113.92880131490735,115.981865925634,8.765969163202993,9.693729e+06
-181.74477221719897,-32.07540904505001,46.67972513038503,1.849829e+07
45.824375004324935,-92.96413517031974,14.83066609783243,7.577386e+06
-77.25210296980846,118.13902120716848,40.239524687902026,4.3693525e+06
-104.55008336444895,-66.95302559109274,6.221838269519486,6.6895475e+06
-60.642922960518405,104.8253288642319,20.359762870651178,6.0627795e+06
-87.93973132875638,-152.2384089819708,21.961730828344834,8.0680165e+06
-85.8306876587477,-95.7127973925207,36.09634713264512,1.3879935e+07
-40.48653681910167,110.06764380092714,22.575671970628242,7.812448e+06
111.68323732610186,-121.21219204551096,32.3826127243388,7.5725955e+06
-100.52869371156703,-143.67809008380442,12.230096365214877,1.0964681e+07
99.81337762820596,40.98096704410108,43.71591821783051,1.1152712e+07
-168.75096206795192,0.19095302127882974,44.081701276375426,1.5216308e+07
-93.17650621264985,-99.71152647259642,29.86412208129623,1.2376117e+07
39.05647995477946,-138.83557404019356,23.645032185205938,7.4753525e+06
160.44325555443015,-27.691810044557997,22.009313763408773,7.527943e+06
39.6105349230977,-133.87083254160086,45.42487964357668,1.5607565e+07
51.703261936491316,-121.03989381676476,7.011497863496994,1.0284186e+07
-133.4582794887984,34.25323737493201,14.099317272926525,1.0642682e+07
-59.59960673271857,93.6538484414267,23.518171337664327,8.886974e+06
146.75409982137103,21.283771495368683,-4.840101054605236,8.837918e+06
-83.44306227399056,-78.62073743616568,8.473421585378784,7.3857915e+06
-28.060621568901155,175.92650474261904,28.008370679325736,1.4883436e+07
-89.97303929495443,-3.12683492857596,44.65038743719111,1.1967225e+07
-34.36368120545694,122.87915989211466,28.55016078029462,1.0084866e+07
-147.8978279780992,-77.41036347879846,21.339244558224966,1.046579e+07
-84.91795224459034,130.4263453152219,40.61733725821574,4.1716025e+06
40.0642929766025,-93.27671608610987,43.40956791853701,1.2314802e+07
-50.687583128575305,131.05701676992862,44.50276288536332,9.552623e+06
-13.593486747332747,-177.41744181692195,-2.662060733025643,5.1057905e+06
137.01594985873254,119.81415892029948,1.387835113007647,1.5915618e+07
-97.4522558570019,86.77975017608082,33.06176296977385,1.1221875e+07
161.44506427322546,6.130057347165774,28.9952190165103,1.0294688e+07
-11.355084586764121,114.99661638454643,0.10617467940648355,1.3154597e+07
-153.8901250403866,42.04025082869748,18.132779390483922,1.4195552e+07
-3.6946853820539616,140.13328873136987,21.03645908893032,8.527841e+06
-176.85845193139946,-52.56176202462211,8.249484492018553,1.4373636e+07
136.90947156357487,-20.77675351575067,-4.293301409680945,1.1029668e+07
66.71619964798276,92.72575917010852,21.802057617445005,5.353145e+06
-159.95889288843458,-23.722847741631398,13.708831648199324,1.6442488e+07
151.7824231308963,22.327705151930076,12.976745845587601,6.557756e+06
38.04901079228259,-144.53697091686422,32.56161500042231,1.1962056e+07
89.36218948617915,98.90291987253505,-1.949876624041298,1.092211e+07
79.07876207887125,152.52342795055233,29.84136013393658,8.58526e+06
-118.24822702147152,80.37354596000148,18.094341597041982,7.3347955e+06
-67.30213360579594,77.37364602586996,37.19510514885542,9.120212e+06
122.37155328521243,129.5360181247496,4.278110444315524,1.3741578e+07
42.75917553469307,135.7112304855865,21.418442371597084,5.7707415e+06
145.88066986608732,94.211833660781,10.952038620356927,1.1255365e+07
-26.15298285665642,-103.7368796808067,-4.514278849581435,1.8453984e+07
101.76813334236061,98.56441043826248,21.254343954720504,6.2813825e+06
50.99705729281831,-133.66868786617374,37.80097034208541,9.130539e+06
128.42727555839662,-76.33224609594804,41.09549095109865,9.753759e+06
-69.74800567198679,150.58486336706267,1.880855530518064,7.290524e+06
134.1786148714981,105.16209342616098,41.145289383662565,6.7438305e+06
129.47747870843853,-98.97246095598678,39.81934362602093,1.2545139e+07
-10.921460134986205,145.3350866049177,0.6339915804567966,1.2143958e+07
59.10203751432413,133.8014435457187,26.084724277336445,6.7907265e+06
-74.39211432044365,-159.43396486118536,4.564950248560254,1.6304278e+07
-177.7284751423814,-47.97568112170802,5.2943026243099816,1.0736257e+07
-137.92427608382297,-129.69105586455765,0.6099376551460974,2.8730478e+07
143.0736614229632,8.527482866201723,8.057302831185018,1.1259986e+07
-99.16198080010727,61.006977878566204,32.87050754053449,1.1510822e+07
-14.44957965137016,128.94597307004506,12.785363927551746,1.1408075e+07
41.080591402464336,-112.84186113663957,31.006286695583043,1.1306483e+07
-46.34492743239602,89.2115158995295,12.477720844712103,5.8596525e+06
-100.99065993032559,-11.154008822183357,5.750944121975816,9.330572e+06
121.29025699766636,23.036177188170058,7.849758084427328,1.1197014e+07
-32.942451277784954,119.18231505382232,-1.6148220482709779,1.2184492e+07
-139.19263827516212,-70.41075054219874,4.136891882433735,9.759572e+06
-140.60265478388948,104.55349963004193,43.50912331792431,1.767895e+07
-144.4571756928147,34.052870988113966,2.825338497269902,9.739617e+06
-102.4130631104149,93.2661971348877,30.431311633974936,1.0659276e+07
126.86309493399727,37.54641709654808,33.117229077965995,1.4950343e+07
2.9857809407914715,106.96729582295268,18.97360915753383,7.026347e+06
61.88807423984366,-82.24907201774218,41.956292655212515,1.11434e+07
-100.61568735484036,-56.09295323736285,15.259236396527099,9.562922e+06
-142.3709240180276,8.956260092430682,13.861523114840999,1.3324193e+07
-50.17201314040821,144.97385028989032,-3.7877906706550957,1.2956648e+07
-171.72134501980065,43.98946864876871,29.962160203732317,1.6627611e+07
100.20380148892656,43.34588118751452,10.58923174494633,8.670884e+06
-29.332605725479993,-100.05868409338774,39.18945686255834,1.1211532e+07
-45.735385939638206,124.1746503538468,31.00798065156964,1.0658979e+07
64.83933805393553,-81.29295139609738,-0.4366880124509214,9.955307e+06
-48.5030379126342,-93.74527283810971,12.539472272124847,1.1599101e+07
130.5614581611498,33.24257943139105,31.20631326183829,1.4752113e+07
-119.92682210358305,22.45957145103779,45.074154728139106,9.816104e+06
-111.410123753054,50.20045443360357,21.363044001215545,4.3217465e+06
-106.1484649439774,-62.33564958024732,29.466792959684046,1.305829e+07
99.56016559135736,122.27898480379093,9.472278467399752,6.7797735e+06
0.9926287602472713,139.21475473092676,46.6672698657343,1.6921872e+07
109.81675021159998,-45.657783920662354,19.476381424658715,6.396955e+06
-136.41963487353124,-20.945708619356424,29.370355111075845,6.9182845e+06
-24.90172391185385,112.1275417917974,39.64944166610084,6.413732e+06
-43.28202567074578,100.69533029975844,1.6508051496962892,9.827113e+06
-84.9156533764039,87.9987054304068,39.293428030397976,6.969355e+06
-166.2291402859758,10.74784369369604,30.31230095325152,8.901051e+06
-5.717218331665862,179.2514772170964,40.30447043703555,1.7245272e+07
-91.85677985313268,-48.84989166950433,-2.2989152683999676,7.122498e+06
114.14543015375999,-25.207560418228923,26.290672261254883,1.1962875e+07
-39.76367135755896,-109.29164423069126,12.506670820442402,1.1982406e+07
-63.464310932306546,-162.87322915388725,0.2886045938775156,1.4458912e+07
-170.38778017780993,40.09301299356443,29.266927632961544,1.5373905e+07
113.19638389265334,116.83984041434081,-2.9308530050648494,1.9215816e+07
135.96712434215885,39.10641099957806,36.59857992538525,1.1347332e+07
32.61948441558508,132.50768977139774,20.387820501019846,6.2484695e+06
101.54668556835213,-39.0550864942158,40.96870351016579,9.96268e+06
-173.40218366795312,47.66978002727788,19.73465215645007,2.0091462e+07
70.66087976428224,-163.42478148731377,46.86045890915252,3.01539e+07
-63.54969493881438,-82.12917157193615,-1.3924625669469666,8.766541e+06
12.457183340456055,108.8667753737695,4.3644228463875905,1.078512e+07
3.1581965719658167,91.64106792341852,42.34869553819114,1.1574508e+07
14.596985120725492,108.00917806706018,39.14920594418621,7.403423e+06
-25.738728088864804,186.94083109469256,47.29819602360638,2.727395e+07
177.9473963110534,17.586122364407203,13.68959347852753,9.361983e+06
-38.491560195389184,167.97792674502398,44.72536780151357,1.58514e+07
-54.953358122501236,156.81953706426526,5.3347869034417785,1.3399407e+07
131.74797781063705,120.76636894639773,31.369733170353044,1.2229155e+07
37.67529974844757,-173.14542827838127,18.05716167794881,4.8472925e+06
-125.49602299899196,39.96169740174085,-2.0206036515664794,1.4976732e+07
32.643155502868865,-125.0892374164985,2.9988027261089556,9.727728e+06
74.78452309985624,-129.31155685785907,43.24892642976811,1.1590378e+07
156.1992742802007,29.161909171770926,-2.4629593206185816,1.0946686e+07
-107.13307641062153,-15.347970592059426,38.57892930659735,1.4330396e+07
-129.36403868690888,-127.75912796485622,2.3716443170044337,2.2733646e+07
-21.04371816715721,131.98999193903518,19.65466283309737,8.3817855e+06
-143.68000259831413,112.78697956566164,36.7508810177216,1.9559786e+07
-23.39491302694637,132.22180376095866,11.041572824745664,1.2715932e+07
-97.79160988027371,-131.71029329657028,-1.0640882546967483,2.003953e+07
104.30208175436006,-71.49553658264622,31.692073742811083,1.0756555e+07
32.37050813345297,-91.07830497946709,-3.0735782548255313,1.5305086e+07
111.99407517749222,-116.8023382765726,10.727568028654714,4.325887e+06
70.3258644084475,85.01500718816277,17.562719461177693,4.334281e+06
157.33000144395334,70.38668845621976,21.64250361512687,6.7178055e+06
61.45383253533112,138.2740869699996,0.7574986542419048,1.270214e+07
-158.8862628011283,-20.825468911979556,28.48445319986114,7.2315e+06
18.093640556073552,-129.8797339700673,27.75920374812145,9.859853e+06
57.09334788901026,-124.85247530721715,30.159270678865603,1.1428112e+07
105.01146172876383,37.60141922679418,45.90861854836844,7.7094915e+06
69.3779136813933,120.17657001341422,23.26718821822368,6.134983e+06
124.57728445319162,71.89845277352208,35.55617995564067,1.2911428e+07
50.51300531982861,-157.55851293704595,20.57555832886305,6.8506055e+06
-112.93057183500154,-24.81270474649341,28.40394826398959,1.1103009e+07
-26.758569010748488,-120.29101660214052,6.861776742930013,1.0667742e+07
-21.697656724896063,110.21109000070317,19.105613879892218,7.0926185e+06
-51.280721943226126,-153.51350419614803,21.152075120120358,7.3378975e+06
27.162426730232543,-176.14126793005752,-0.6672547164787705,8.304836e+06
17.05958317837326,-116.44566315823761,19.303366333600497,3.8745272e+06
-123.42812684802688,91.41445630657944,34.01276890270304,1.1942389e+07
151.72923151099644,13.663387148358908,26.625041435518234,1.137634e+07
-165.23103370695065,-57.22369005407174,7.766600558329498,1.2547462e+07
24.44984900872518,-169.88750599687998,24.434766571375157,9.714503e+06
-156.22084223667662,51.313255675885614,6.060227350839337,9.286765e+06
9.056886488478852,145.5214228238582,27.409247857041898,8.854341e+06
-148.30355825539732,11.053769836539772,14.02057501233547,1.4229845e+07
144.5153920750496,-31.311732927926926,43.64958602616089,1.4136559e+07
-133.12349793917852,-3.8846501613088833,27.99280250202168,5.514685e+06
78.5197593109645,-149.18010227281655,12.636187270594753,4.7775005e+06
31.915663344280432,-96.2155973876642,29.275932262719508,9.107219e+06
-69.94665092083054,-162.59668617063102,20.327449096425706,9.194564e+06
-23.30738271554668,170.25747105450688,12.263323970120027,1.9689296e+07
-84.24698404280213,151.87414560326562,45.4467006995481,1.0597898e+07
103.51769557601146,37.5831126148511,26.233219768552,1.1664545e+07
11.7458802130067,149.50442744626093,27.88948981852232,9.207533e+06
-127.23647166501259,20.82041767772762,47.13801001462328,1.1763075e+07
138.05893757319626,-87.31053630849223,-2.81758723802004,6.7839695e+06
-165.104961222037,40.52497605541069,41.34567484055187,1.833135e+07
89.93807650459286,-83.34237596767635,3.5027023329620475,8.212217e+06
137.85824328249333,6.062583603281041,35.04563772124547,1.1126455e+07
-133.0153629253191,24.34951334811069,18.190192016193176,9.553577e+06
-120.87215400216826,53.00991525692834,-3.441359660804399,1.89187e+07
-43.41184688976455,122.36105500476862,-1.5995842850868685,1.0753768e+07
15.99418197675817,-183.0068665806258,39.517449248435916,7.9389975e+06
-105.83921070430704,-86.87326519126626,25.64472420225875,9.979731e+06
1.9215127497362803,-150.43729756347471,8.96815373050543,1.2935509e+07
59.736500829146166,116.48248970382578,0.41057458981276684,1.0677019e+07
-57.76929687017264,137.01688879624305,45.64395647121369,1.1934885e+07
163.79627122950546,8.008786126194337,36.14203991099468,6.5623545e+06
114.05948472617695,-79.64881446212009,37.81673030641959,4.0139195e+06
70.49486418926654,80.25839223348925,43.787588782290186,1.2853903e+07
-56.495761098906115,-109.02546121856136,24.51016775800072,9.007442e+06
134.00267694139524,-92.51039456106147,41.723813408963316,1.7728224e+07
-144.13246545919756,51.56872166439169,42.063509073983845,1.3325693e+07
-162.37962734335815,33.93640241919172,5.3867394481053585,1.0047608e+07
-115.11125521118383,44.440765489856744,5.756610049828092,6.2439285e+06
128.27300038542376,60.99709361575077,28.781811892960732,1.3703697e+07
-129.9183544600396,-84.45905505575708,18.524180050587233,7.2071645e+06
-142.8910980792292,-61.6540806140342,44.38247832105976,5.552181e+06
100.37065785722872,-67.5809111448863,27.362646855925924,1.0819436e+07
-195.49660621599983,-1.394950848846662,-3.8363194317339517,3.1982062e+07
-126.29349705728292,-138.87982941912975,41.711916029261104,1.598698e+07
138.93142286445243,44.54639616958764,7.132321678055901,1.2266433e+07
-34.030793256169744,-179.99498683034116,5.382120446745705,1.7379024e+07
-76.12594043444875,-152.6703926383094,12.944806169562707,1.3527542e+07
-39.24200060209495,-141.42139452798023,3.245449938223158,8.0689875e+06
99.88263042646275,-103.48918798455728,26.20115579768731,9.84021e+06
-75.80724960990071,-120.96733922041611,38.89251547334865,9.456999e+06
-118.02104806343863,-49.907961707772756,39.714760595476314,1.3506573e+07
-36.25134267721731,-146.70861906230158,33.9219958222182,9.098181e+06
114.73926864983493,-3.3103970426555525,21.793522901287172,7.6710795e+06
-79.05822164976377,70.59663555847015,41.95379663424258,6.37257e+06
98.2355007726959,115.1614288485743,46.48816942212488,1.2986001e+07
-81.21925217222619,147.60864201288888,45.87751035177383,1.1391035e+07
57.88548318581434,159.0721675262721,14.75310736472912,6.38983e+06
-141.48571753764645,87.02625639748322,38.184452423359275,1.562903e+07
129.03967439861862,90.13307659349641,17.801981753767826,4.9319435e+06
51.84279425028305,101.40991592092996,8.009118647756518,5.581101e+06
98.34287114229483,113.43430513081415,-1.5487132737020397,1.3720234e+07
-103.17118480079807,-135.61218185821343,8.99642411242354,1.1217414e+07
-6.15872545969944,134.24453572624242,1.6001704097818457,1.2480474e+07
50.39108886606288,-168.15295061143803,16.20125389225465,4.0859132e+06
-169.56986424254686,47.47675641733417,33.88355610928744,1.7048648e+07
-73.99545401936342,91.91965370285556,35.97098631470824,1.0076807e+07
1.833713386535692,-94.4435243280081,-2.2152775737769392,1.278805e+07
-99.69438992718396,155.38678296569628,23.805653474835687,1.3378775e+07
-112.91173145889854,101.41242389988292,2.1917730554820736,7.821409e+06
113.24268968118382,31.461952415321235,1.2503588743014122,9.102449e+06
82.3837795766022,100.60944774430766,1.9780489721009737,3.4758528e+06
-14.649184018500618,126.0485965915784,43.852708626377165,1.0452733e+07
43.80328224767277,116.59277249482966,0.9914194521111168,1.1064941e+07
-42.65683774001997,-118.42478757621669,34.66351848237189,1.141336e+07
-104.29991666195505,-112.97531141891533,46.23842393687516,1.1051915e+07
-130.55201148802064,71.52302320448109,-3.812891842673525,2.6591798e+07
-171.75417941912997,60.29214656738561,16.490853681001475,1.89171e+07
96.48166913862559,-107.87106664486234,7.902897820848537,6.556714e+06
-99.91869908986493,24.73540660738442,31.7224093692763,1.2503754e+07
-169.1279623620785,11.354849482937368,41.53333157797289,1.5373314e+07
48.57160790799503,123.66808139803152,29.731666962197572,7.7565875e+06
-144.68430923574638,-18.735469902000688,15.551523947518154,1.3939689e+07
139.22548816983942,-121.58865304250246,28.313060644967347,9.026651e+06
173.19803658286338,-42.84269062406608,15.103452168318174,6.666135e+06
-70.73043835966183,167.25454068518496,21.980166529659183,1.4420619e+07
-15.360974233307358,-100.50939765725708,44.92986446697194,1.2126895e+07
-124.6656468097155,-64.38276472038936,2.49115276997748,8.154344e+06
-117.84536335347724,-142.7150852667665,-4.118440965645865,3.4374252e+07
-135.16502554535546,3.5809587658534667,1.0140245731114663,8.395535e+06
-156.22088320539396,-16.40391774492099,47.21155777672742,1.0729905e+07
-15.182863474530848,-124.0837819695535,-3.535996232610383,1.4740115e+07
67.4878086279162,-100.37321259578249,40.721143265916176,8.530111e+06
106.48915441417364,-94.12540281132316,-1.2060902953364716,6.5092505e+06
-131.38536583238732,120.78153126544595,-4.635205484829273,3.8966612e+07
-125.01803227434198,93.02979038766972,27.970103339600506,1.0746447e+07
-119.70347086901616,110.38583583631352,8.382424560238949,8.828852e+06
73.30681574111577,85.4166631985417,21.196176549313556,5.0528435e+06
-91.32075840426062,125.22608797149745,33.90948098141319,1.0238e+07
-2.0244167398559796,163.0737597276365,27.13460191844767,1.1469665e+07
115.66583776248194,9.503142075964632,-3.725514101981922,8.210957e+06
28.52331642601897,-115.28148099278663,31.095607535261458,1.1395715e+07
-105.77684933335316,35.17365185375607,-3.7432304424924734,1.2457112e+07
90.27265220357293,153.4508206007663,35.55563121652844,6.3780085e+06
-56.18592854546952,104.30766808085588,21.743396473442278,7.0478635e+06
139.9645193738874,75.62381191118487,18.602136915295834,3.298566e+06
-179.2056798212462,-33.211871152084115,2.940178563801519,6.7532875e+06
105.89747386356356,121.81225455101918,35.77369038905686,8.3664985e+06
-115.04272411354485,-48.11131153649853,43.096248788603766,1.0917488e+07
-104.48221543182044,16.17677522397122,0.4401633605672125,7.3996265e+06
115.6965903624511,-55.375857029175165,14.495542619407527,4.74028e+06
11.645097328200336,-158.13087067507,37.6388672201244,8.403531e+06
-85.30300835949967,-156.81972713042217,-2.7725596195700075,2.3957916e+07
-40.23451364475221,-99.735399280579,40.29973448597206,1.0562444e+07
-174.5740791850172,29.321774909116527,6.5596013888158335,1.125258e+07
47.36469479316381,-126.76111983588049,20.892221252326934,3.7055932e+06
-163.87826202486735,-82.33165277669335,6.5589682448092175,1.4841283e+07
-95.84578666990633,153.13245837124543,31.50888381329109,1.1105527e+07
123.261718297161,144.22757109148307,43.54736246768676,1.5381546e+07
136.2489176871373,-121.20483844703699,1.8778787037261286,4.772983e+06
145.16902879265479,-3.6815475434607947,23.238552767947834,9.171623e+06
26.92121421985192,-160.90338881978906,30.93937849971373,1.1980558e+07
16.762662000205523,122.16215915713218,24.42160139532313,7.094866e+06
-75.29390799803939,-136.9988567057917,21.32477325560306,7.4336965e+06
-28.229309213640306,96.39552492591577,25.479196486603513,1.0400238e+07
138.09030633280878,-31.919788174847184,1.453301188279867,1.0882862e+07
-48.563179359351096,123.00691041703107,-3.726121534454369,1.3382954e+07
-100.1035825455034,-64.19106838197871,18.022960351019666,9.202815e+06
-134.432178348558,-7.461607361953526,20.39877252374826,9.607324e+06
64.2475921744333,175.34670117699142,47.01767665676502,2.602043e+07
-114.63957115159586,-0.8099554923282142,44.03876105615029,1.0202571e+07
-128.41321077618034,-59.54533388002853,-0.14655717100246268,8.791968e+06
-25.035998512125044,-145.7515773187739,21.1446067439621,5.9915165e+06
136.42190255959412,41.121544452017076,29.091805773577274,1.3881699e+07
-113.6923738202936,-82.84822847001298,45.596766491316416,7.307504e+06
-82.07450150021684,71.04690073176823,33.31853387598658,1.2144632e+07
-71.71760048053005,-88.03784292076205,16.702656709858335,1.0320665e+07
-71.43884832158881,-93.96587289679665,34.90399038943262,1.4034273e+07
-177.27289573657202,-9.925292406562562,20.998387644249362,2.066056e+07
93.18705069092482,-99.98960756226141,-0.14951887872423658,7.0152145e+06
-159.3939014485876,-18.860157894927994,34.47418104380486,5.2603565e+06
103.50314704722267,-83.71823494290504,23.007172441974895,8.665161e+06
-32.581087861396355,-128.21462427125843,38.13111368900481,9.086506e+06
-140.6301938935979,95.82901070456319,46.030777775053096,1.8698474e+07
39.29764793989406,108.57438474560075,-3.613881683191027,1.8825158e+07
125.59931477389188,-111.45667915892558,25.609922943790902,9.454407e+06
135.14445160134028,-44.46974884805752,14.265000176997821,3.3715318e+06
111.45327368842025,127.83956262986653,15.554383660074329,9.603283e+06
30.89709085868896,-156.0364464713577,29.17877308732131,1.2062369e+07
-42.96057757901721,163.4794398578063,16.017931239565396,1.7679532e+07
-125.96173669132038,-93.80321991472135,-2.749392802188585,1.963337e+07
-58.34463206358663,-156.07370079308924,28.51022981960772,8.16837e+06
-124.39696832378719,-122.80096242113373,43.59870551933936,1.2510056e+07
40.2370178902257,-143.58661895193626,6.8528499324114724,1.0767212e+07
72.43850310331004,-126.35776242983198,24.748514277762297,9.337977e+06
100.53708465747764,-143.88931564831665,22.03446185355594,1.0671433e+07
161.69798125153068,46.15971000916278,24.351704903847672,9.997067e+06
21.993554004509974,-110.15144663907769,28.10134941979085,8.992813e+06
-123.32232776170197,51.550934694877434,43.378343790703425,9.517999e+06
-68.9860730500734,-84.27838129426277,-3.2739891785072985,1.3251452e+07
-39.49388287081331,-81.14595496480135,42.96957613173119,1.1106699e+07
-176.66784904905617,46.33557618662695,31.14141798385854,1.9618184e+07
4.582272870510678,-151.06820596564984,43.77413069578101,1.331864e+07
83.49937895780158,98.51867581003069,30.72789318032918,1.1166543e+07
112.66609496029929,-106.70989056582205,35.2065653683487,4.963338e+06
152.74131907643545,-58.0524373388383,-2.011865204237177,9.908419e+06
-72.04700726104653,82.38908686369018,33.17023885576957,1.2056046e+07
16.58231022833516,178.29367264140012,44.97195385115456,2.0932832e+07
123.76052391569874,-95.96901899831916,43.81775019940155,1.942586e+07
-135.6163084162817,119.97928598004034,35.87042354727568,1.7576724e+07
-74.37504116862871,155.61625471839812,41.57009398008591,7.058754e+06
102.01929620604119,-9.4781656417276,34.81824149528056,1.5765085e+07
153.5064110543118,-69.31723403830489,47.3558281367924,4.1510476e+07
-143.85103987900192,-82.7549738465962,6.468536689264534,1.0971454e+07
114.52149030054407,-19.984267296195895,26.183811115008986,1.2001112e+07
44.979363501138636,141.0858749212619,8.640351013923421,6.4850425e+06
47.44556023068927,-122.99389625593528,30.977321802694547,1.1633957e+07
130.9899666343784,-80.81579033622081,10.614333836448921,3.591771e+06
-3.617779618328285,161.02656935106097,46.154639119420054,1.8379588e+07
-43.87726924238606,172.82326180888265,12.640943061810873,2.1343364e+07
87.73610425784034,-72.0035475286473,37.700620888813354,1.0072656e+07
-180.97939237592712,2.1992797662340138,44.67561404621937,2.1135252e+07
62.09091779719847,-136.50585756174,7.943082042407101,9.059425e+06
-110.89612601461414,-19.45093267104903,43.534723692375984,1.1142479e+07
119.84747076023854,-81.48223678485809,39.66991172066593,5.119643e+06
116.11944845314066,-143.75289607643003,19.895608370203234,1.0517623e+07
18.204941889265797,-118.82882460045181,20.045391370011533,3.132197e+06
28.651025452164845,-134.8987831858337,14.149117809155452,7.4677825e+06
30.63124632386649,-138.61437599836256,47.141426977679835,2.0531288e+07
13.716846939159751,-139.53151435225334,2.932947058466729,9.375805e+06
73.65114467540803,-159.28244660134982,13.418990079693364,4.735143e+06
105.44195320268665,132.53331789977858,6.91336558995987,9.081396e+06
-57.432441197639946,127.99505486356107,33.45748444913297,1.0291614e+07
92.61198424099206,-84.44263768579762,9.96884844682922,7.53168e+06
138.13294551378885,-64.42779904881135,15.115342162627114,4.267553e+06
98.81351539556118,-34.94983079381683,5.891208662826385,1.0556161e+07
10.884784666899293,176.50893710166173,33.66155029050605,1.5151948e+07
63.16084252688302,-157.24061060183425,26.04647175909983,1.2278172e+07
75.96358611049703,-98.17796860545833,10.797925814838283,8.0080715e+06
-40.816950514073824,166.89094172831227,19.099376490485103,1.623415e+07
-37.788351882852425,168.3346033304867,6.355845593882389,1.6419906e+07
-121.32563904262956,20.18917952395043,30.92037276259419,8.564557e+06
102.73386139361429,-21.599774159580278,17.4110787417567,4.7564705e+06
-29.749505179394703,180.75000288579542,5.928013031923549,1.7338858e+07
-149.2485104160481,35.55602642337496,18.00395154040148,1.3053894e+07
157.0730291041338,-70.5528074740509,30.860432453919152,4.2954895e+06
84.01992921060184,130.74058131453057,19.364563226828082,6.166016e+06
151.0593038349623,-82.4879476906558,14.248938997532326,5.425729e+06
-97.22570897753009,-31.4667956801093,8.636481254370459,9.783963e+06
-18.90422837052435,181.68143485042748,15.760003704651943,2.1528354e+07
-44.33951760904128,124.80630159057073,18.99932362112725,7.6636945e+06
-104.29638882552004,-24.235169367404325,8.98875383413148,1.0195976e+07
132.1298919613899,-42.16285657813748,1.8956922838927315,9.835865e+06
109.3594886945479,-130.05462462250296,27.58361495727472,1.0485065e+07
105.47656069155869,-35.466261857543344,37.874776019960635,1.1853213e+07
71.65985418843093,151.2349186931246,17.69052169074311,6.0601895e+06
142.31360960645003,28.8573211711097,15.875402397388699,2.4882708e+06
34.93411562631033,142.9894018249891,8.533722510696926,8.46147e+06
-118.12831312025111,132.90931645807444,23.02871512923817,1.4385228e+07
18.62836104203774,162.4035582445311,3.994312607149518,1.1022621e+07
1.897199038802853,136.69511499084143,46.85583843324149,1.7321168e+07
-174.58512537495739,10.65356281829861,37.7926692155526,1.4466675e+07
123.53275564815982,23.417148360579574,43.874932730831716,3.4167792e+06
-28.070762491256435,164.42336925549455,42.31129504865386,1.2987485e+07
87.83603871922827,-74.83646921211093,22.54794754331149,7.153696e+06
10.843710587095586,167.82335433612087,33.03159271881876,1.3060623e+07
151.91181525106532,97.9057047181135,38.64725595102618,7.8352555e+06
-96.40189369767862,134.83490002015373,13.890809684319493,1.4150572e+07
153.45518741144036,2.575703952736461,30.752692992186297,1.0652155e+07
12.122164759326239,134.2709363226217,6.956938155545924,1.1275207e+07
130.01008613066682,-66.53539750643702,22.531248596773604,9.066286e+06
-83.1503019915429,169.3595028734893,-0.016515303541224102,1.1493838e+07
-129.80738049376782,-52.143217657904586,-1.9805744214625298,8.432515e+06
-143.26840830579647,-32.57264616682636,35.17476887813083,9.032597e+06
17.38341549472574,95.1087298704544,-1.0846525161116871,1.370966e+07
-1.111478133659773,179.42202858535296,20.010837897273493,1.7057014e+07
-137.06665696707776,74.88847130404179,41.605854054271866,1.33771e+07
80.58669408210329,88.0595827398173,3.5475634668128806,2.6423065e+06
55.811846120060345,-112.26556844260394,5.631583155594434,1.0043748e+07
41.11506004145093,-160.94814732619275,36.4798487706608,8.885002e+06
121.06473700938307,46.65811463212171,9.310378391861857,1.0071309e+07
94.49531457349019,79.59654177653255,23.337986481421304,7.389477e+06
-27.889728630222603,134.80379396691336,17.572594611947352,9.948525e+06
108.14550631002248,-144.09734691880334,37.22361992393218,1.1350873e+07
137.92978061277597,-36.9405995744294,16.409026676434802,3.7989115e+06
-61.105737226885594,148.87768674783462,38.39201275635619,8.1798005e+06
-44.870171547520386,-173.93559148551088,32.98382750647228,7.931177e+06
109.43286551526347,122.89325159078265,44.60499316313886,1.1072479e+07
161.2104932423922,-20.07551727340382,9.723592975658676,8.596843e+06
145.5604456261571,-106.09591025384492,8.558077632709137,5.05202e+06
-109.20151776077498,33.72383078213454,14.160166592153143,7.412768e+06
-16.992594640431378,111.48282762537728,32.398562366840814,9.938199e+06
108.44299976630465,42.53135282119024,21.305765955859734,5.879565e+06
-146.34132113164145,-4.271040601726611,27.614248691362462,4.6272435e+06
-3.2980574675011387,-179.8778583917333,16.386480120155355,8.619156e+06
-5.531905734278098,168.14671413258856,11.530781657160098,1.75804e+07
-104.99254823436827,101.69389498700775,30.79107733024812,1.0843187e+07
-27.027345088307978,109.02657652253652,4.286241534644708,1.1012569e+07
140.38288079180342,-111.90568777756735,18.62328558823835,8.500513e+06
102.25930251094877,30.846147828605694,23.271312966266557,8.256458e+06
-104.316731689537,95.59908126420657,11.836542760868067,6.9787395e+06
139.84715793169613,-23.001897647360096,25.39326879943018,1.0639105e+07
25.728530084620786,-98.63467788073011,34.542192325500565,1.1932274e+07
2.2835133528681695,192.15710261861085,-2.4931107048955097,1.7175424e+07
95.94905991815062,91.07537533751707,35.044508709784616,1.2543782e+07
-114.23908560907665,14.705175928524994,-4.909676111828364,1.2579687e+07
97.98875623829906,112.74303182264424,9.773702698889828,6.159996e+06
-53.16742446259167,-136.61181386446356,23.79993874452512,6.9635745e+06
3.549440564170283,-135.51543486679859,37.33925281282753,1.0398116e+07
91.66205298442765,127.01836910681845,35.30288793467959,7.83131e+06
-84.3139731710186,67.94562766492544,34.52159035544878,1.1694089e+07
-17.312895840075043,126.9081392825741,4.474706070494489,1.2022417e+07
141.84750288364347,58.08291063993585,19.11980487454197,2.9685138e+06
65.99501035916347,121.6293542314989,43.09898112139468,6.3484575e+06
-143.3725489172998,106.30760773713938,-0.8220652672108044,2.7300396e+07
66.89550716927602,-105.70245464975429,41.471561977849106,8.22903e+06
134.57284026755377,-25.604588872839965,43.3328675749075,7.404805e+06
-125.78323689718194,-70.69610283566021,12.897141661188428,8.205357e+06
107.4841455604273,-127.87720228552372,8.437892525248166,5.264072e+06
11.948646902926413,-111.70812134830723,26.06344803666754,7.0656395e+06
-179.58244530735982,37.15468023994612,2.89632314790114,1.6617397e+07
-70.91494712325064,-150.4953747761479,47.32905823532997,2.1221642e+07
107.91669861116031,138.12048105468267,5.272342788273361,1.1224172e+07
105.30202693710658,146.04658958629363,7.5464706686338285,1.1627416e+07
-135.73296330106803,94.58578743752713,31.391946967381877,1.3921985e+07
48.56449874341965,121.78622697166759,12.272791696374423,5.941064e+06
116.80000038829974,-89.52168610916362,-3.01876369139034,8.0824715e+06
80.08008438480903,-100.40247034054154,43.022775437398074,8.2118865e+06
-72.26370989148725,79.9388738396537,39.20666423397701,7.0818e+06
76.04083478497495,65.2119748131716,-2.7296766999077646,7.0483585e+06
131.85326566768623,-77.77338278313253,23.961730961850062,9.324337e+06
-109.00876749774504,35.62605063366456,12.420328502164377,7.6293e+06
4.976571603206111,-146.78912653592593,13.393354687341157,1.0282072e+07
156.1759666646402,43.74228271748936,47.190889924636835,2.5721558e+07
101.4323869860533,-138.45343170379357,11.980971611932578,5.0239095e+06
71.40709196404765,132.97923218356658,32.22694581271195,8.0856465e+06
-116.62165255316687,-117.15820267656571,7.843605688770781,9.521041e+06
-43.13321085151199,178.87018234696927,42.06844828193037,1.6488535e+07
22.455059460954175,-131.35093119994218,31.811218959597785,1.1996056e+07
-134.6224964396526,71.00778982018016,36.39033286561783,1.1881508e+07
69.58074561919017,144.7900414288943,30.76472714857821,7.945736e+06
-180.24522625974203,-0.8186794402246563,21.25446338637927,2.1634886e+07
-105.02114405533568,-97.20350871930302,0.030201711818245987,1.2941346e+07
21.732218458647537,-103.07486306613649,35.30286043303154,1.2109576e+07
-92.30623797397138,-2.949630475947089,43.69297123508904,1.1675294e+07
-179.23965848691307,57.115745915442346,-1.0449502958997816,3.3140292e+07
151.301564342696,-12.701039143450998,22.90140379511935,8.608072e+06
108.13624107576027,48.69599700847306,22.57059858400966,7.38287e+06
-152.856775685434,-101.73510279044602,44.74202012433612,1.176121e+07
87.49074344622505,-137.00965707522118,10.596865345155594,5.6109215e+06
170.04351846490357,-67.02479507215796,43.62789939523675,3.9170664e+07
112.05055451522936,-152.1310770806757,46.763992706075115,4.0631788e+07
-134.7852909562486,119.36908702361586,4.466705577951519,1.323389e+07
-34.4470636011915,171.2225728340212,35.55633540607398,1.4579645e+07
-163.5300424269206,49.33683276838812,22.10695087808315,1.6249511e+07
15.210479381002528,-171.47727294218575,12.217390931916842,1.0185102e+07
155.48268955174115,7.249513200317153,-0.6871589479608008,1.3158123e+07
174.0766260330024,-38.31259714381679,28.047567950457037,4.7835425e+06
112.16728772801456,-35.035382622789456,7.875227129520053,9.409867e+06
-139.80626256769602,116.28904030374707,-3.0675979326193796,3.5896052e+07
-109.42810839417913,84.99539861245273,21.788666964907968,6.2334005e+06
92.66284068537288,87.41018571195644,46.20715715438855,9.577939e+06
165.5851458946059,6.069198341063014,12.953855784219947,7.430692e+06
-59.84648163416105,141.4684465343695,16.81515034687957,1.2266697e+07
81.17237205870424,-148.91359814228412,37.13597751209336,7.73613e+06
120.57566262505668,-136.85955805606946,-3.117722917185482,9.371533e+06
71.8856851437971,93.61272472967596,4.619832442192465,3.2476308e+06
98.97432740220921,-141.5472271855039,12.251367790878117,5.097638e+06
-64.51914334008401,-77.3352664954435,17.152768476842557,1.1161142e+07
-116.50017876554335,-40.06524208888993,10.460175863549077,1.0159132e+07
-109.82799293820871,137.11490227734242,27.240177150633414,1.2345376e+07
129.16214883527573,-20.830353131321033,11.811296432596087,6.0190845e+06
157.65929754890948,-83.83638327077816,28.5969243214735,5.2298765e+06
18.41207833187056,172.26876811220455,36.48837051042837,1.3710254e+07
-32.72744617780177,118.58733930201197,37.59293035119524,7.661351e+06
-81.11236910113813,-112.61942987049314,45.1132956663259,8.575395e+06
-175.7663642798423,-46.92356530806205,18.806282623095775,2.0141924e+07
-84.40642356178944,-87.0199432982631,45.142088219329935,8.711909e+06
94.61293330163818,53.847483511396796,1.197867719583932,4.8462005e+06
101.81870847677597,-23.48041052405955,7.226507037242141,1.0592846e+07
-40.54607250449857,119.30732225437083,3.0344253430261783,1.0100911e+07
25.088904997075673,183.27584577306453,-4.698137586334725,2.9957702e+07
170.2899472832575,-28.712666783138644,44.15259290332526,3.183688e+07
-38.09123984332561,-113.537785526422,30.910104603434945,1.1269133e+07
-131.30545271155705,31.582950900498556,11.387828649040877,1.0305207e+07
-67.61485835865156,140.82371616022368,-1.1326782748786728,7.916828e+06
1.5873260498496509,-162.9132157923667,16.105319977523855,7.864006e+06
-96.2361722571392,44.33620597818461,44.139356517964735,9.296342e+06
87.25838441270906,158.43591855718853,47.42366483401325,2.466069e+07
-114.44099296465126,81.37073110482248,17.896275384454206,6.713081e+06
96.28861230259218,-72.90624437928388,42.73402155649905,7.0243765e+06
152.2452873776868,-45.97200062098983,2.702650153287226,1.0083283e+07
-119.17788545346566,-16.39027093686525,15.699616263696601,1.0610473e+07
-143.59698840913242,-25.64101729799799,3.2533724732797196,7.249893e+06
41.86820088947195,-89.10090777224053,42.681015557873586,1.2327952e+07
-143.5274563116271,81.84151953713655,22.930727387337782,1.3048707e+07
106.95457852053414,-27.711558687194554,-3.019098123751563,1.0832637e+07
46.767038855707085,-143.53625886122296,34.47109020509514,1.0929542e+07
26.350703937128745,-130.73677732903644,29.51764817222363,1.1281635e+07
44.50370586157484,-130.33985496680333,11.366796605275063,8.804933e+06
105.64853408995242,150.24851621608184,27.834738349060775,1.1759926e+07
163.63964334344416,32.76730608087681,40.08372899840767,9.599908e+06
-116.61670582262227,35.258827822562125,8.021979400500415,7.934447e+06
-104.55589285717872,-39.30829689112346,21.844164307996746,9.745401e+06
115.42107741171729,92.19590784131208,47.24268901532741,1.4097055e+07
8.956380543275117,-149.26375663896562,30.926857132654103,1.1461909e+07
122.25767973998234,-119.81429518233604,19.788908882533764,8.674552e+06
-114.7669648639531,-30.50806896367754,4.694515458053897,8.420239e+06
21.682665898784705,-120.65724986136664,22.26740609581858,3.64329e+06
-14.951426188242408,-103.19249446946017,36.261977084387595,1.2013965e+07
138.25211500627523,-12.384246965499926,-1.031526964419714,1.1225836e+07
-150.7609952101641,-38.18449497517946,-1.6055522683479753,7.877904e+06
-94.26124644397218,-29.783513749220784,46.4905695664725,1.1814797e+07
128.13826418622602,4.236013433060691,44.117332946704316,3.0231238e+06
-115.85759638906858,142.52098133594757,41.270827208169294,1.1153161e+07
176.11068823990882,-12.134423225880738,15.03736170543559,7.611124e+06
-102.17223981569967,102.32133842080964,22.24713619724623,7.481407e+06
94.98562463357689,34.28563497516012,17.420824405864057,3.5500462e+06
122.49432649396527,93.11172648922116,43.9053397371247,7.5895245e+06
-17.17443181277889,184.80837623100751,0.6781636504747143,9.141108e+06
46.20265544403631,152.2745338359561,30.07115972244063,8.2867265e+06
97.10889148947547,-74.66184895667043,24.17923465662508,8.981846e+06
-149.53973338536764,-75.37306767954033,29.873633695818462,9.769088e+06
-158.84654912052508,-35.51579855017212,-2.2353383559071283,9.633812e+06
-124.10675067654302,93.78527364376987,47.21253976550954,1.6412069e+07
-150.3228733272099,-1.3884432880983013,12.864299818962639,1.4629909e+07
-10.09203687390277,-197.3344011145678,-4.342364235574817,7.083962e+06
174.6915854032627,17.732141205276662,26.552200869399975,1.0384975e+07
-3.5455302501798944,155.7715022302864,40.517979624226136,1.0504921e+07
-57.82072955772941,136.96382038620607,0.3321684316730888,6.836637e+06
65.89848767426446,131.43662797880722,0.2699911975549457,1.2859756e+07
-98.45235474823806,89.21304431239577,8.234993344153505,3.953006e+06
173.47884891356034,-16.62862790728846,38.1144050065034,1.3947629e+07
-6.359638080426151,-99.88101564482488,15.97828589073642,1.0031143e+07
28.582818233788174,-156.43762126431633,5.202692690362588,1.11348e+07
-147.65202257967064,84.32844255165645,7.5896990062039915,8.874318e+06
-62.91594964158932,172.85750767310554,24.385847006038343,1.4083192e+07
86.23025592177072,-60.4730797430781,41.28199778110133,1.0314136e+07
169.05017497549068,48.366404500773854,16.695312027422556,4.838726e+06
-83.63257551028505,153.52055166841092,21.730321272368904,1.2303562e+07
74.68663497854396,144.5304563682261,23.910459319282243,7.0413875e+06
132.19744321051274,24.690741108931434,36.53877362172038,1.1858069e+07
51.05504086581286,83.3917828301037,10.115626769844853,6.188229e+06
26.968244274702613,103.85479232513404,4.894204585339516,9.138562e+06
134.17915481119297,-89.93064405487141,46.189879653152516,3.076608e+07
175.28175199289552,57.80266381600848,13.253153580581811,8.948188e+06
90.65345368581978,100.42518133485083,31.34851831682792,1.1602702e+07
-126.86029732167054,57.55936753329036,40.114863730899415,1.0074432e+07
120.95128954738851,46.11584025980841,26.334032440862522,1.2197111e+07
-125.22424486195604,-2.7698382081935904,41.443084036419854,1.0978586e+07
122.20443095802416,-129.22061866737988,0.3127307885438987,5.117313e+06
-47.26927709648666,177.25201567771933,24.978813719125945,1.5337535e+07
48.15702999303778,128.5404820502073,5.004535894336778,6.554157e+06
77.31527912887992,143.4447943829689,18.526053481058632,6.1472035e+06
-80.60037611713548,75.09994001689125,18.479670687048806,3.8776398e+06
-104.49554136825817,-86.34391724759492,-1.600806260275893,1.313016e+07
-116.6194844183166,-16.30470513249881,15.66948075039748,1.0447069e+07
82.38137623675368,-100.17478469714884,34.45477819814949,9.471856e+06
-143.32750063535045,18.941838960803068,40.86108265208633,1.0511562e+07
-40.77334450227298,130.00048426718234,33.905269732839336,1.0195577e+07
77.87308216683527,-159.45219554199116,37.92968069163885,9.023438e+06
112.4694342685405,128.4274298436307,-2.929973594512259,2.3106048e+07
-67.81556045879373,-64.1316691926929,46.686184163043926,1.2236585e+07
-70.5520918073992,160.77041477889975,20.83226161998488,1.3779021e+07
-164.15326786282873,-27.371792001655308,-1.9193330993665187,1.0803818e+07
-155.179868913627,-18.798323160478617,27.502078061482962,7.2694365e+06
-154.376459953239,-91.50449504390087,45.34591254985002,9.967279e+06
75.87629141153405,-110.5164167705258,13.822365944231041,5.3398085e+06
-111.91572596188827,42.95781239370723,23.93782386022536,5.27169e+06
144.05435206300024,52.274247675420895,-4.394323025406886,7.503895e+06
-142.65474348536662,-48.55596191193112,16.225651379624072,1.2326063e+07
-121.35789020261196,-88.91520329181634,14.310332897119887,5.8903375e+06
-173.53217828099812,-49.016017229862456,3.756496118493936,9.208808e+06
-107.86333378672718,11.813788679806152,21.454072260700404,7.3266765e+06
48.21575090141238,78.84387174889042,40.63983712288424,1.3388827e+07
-65.91535916690998,119.5065472506098,29.757398143202035,1.0449522e+07
37.004595182215866,-111.43362795302947,-4.8738488052246165,2.02099e+07
-53.700618123697154,-85.34313435384648,10.912103591972542,1.085755e+07
98.29754279522479,-26.804612123291175,21.204307703359436,6.8072355e+06
-161.64901913200293,-57.57042875122647,27.10057516278452,1.093093e+07
-161.15064501198123,62.396924591014404,14.805165484871726,1.5496873e+07
-133.88298603109715,20.332396602646924,24.152380267628818,4.8076065e+06
32.497072102521116,-119.0976076148214,-3.9337176468887667,1.7243908e+07
122.65998023697557,114.94681231650674,16.69712542567862,8.731364e+06
-22.818791841310258,-134.6219998857715,2.339688591824504,6.3716775e+06
-136.54149887912772,98.10538204937353,9.71765861414043,9.862789e+06
131.2649344035268,106.7659515477826,3.782454418451811,1.1429085e+07
112.94520795599692,-20.468236118618194,39.840024683175116,1.0099892e+07
-161.1224787257908,-50.38605618323402,44.757169427562374,7.107551e+06
134.49872296657543,109.97670878317962,18.02840372074009,8.66636e+06
152.5182965635546,-86.50445444021031,36.37730009827074,1.2590591e+07
147.69469226471045,93.54907792429509,38.32968767942657,7.577116e+06
-160.14607119401057,11.173873492105315,12.600736327760004,1.5640087e+07
142.46103534282992,-23.058675684470785,4.352674439517004,1.1355823e+07
-39.9008218883655,-158.7067687704739,13.071038810047536,1.422852e+07
-33.23365756511848,134.38438122440908,28.160138871107797,9.55783e+06
121.6715519391942,15.206420665447723,-4.51937459242128,7.9561105e+06
-64.51553029930949,88.79542270939231,32.49547926895796,1.2112901e+07
147.33579020968602,-19.533912442746754,3.789248642805283,1.2028012e+07
-159.94134413371597,-13.650542438584381,3.0612343640825257,7.3438895e+06
148.16260277581875,38.67284775811979,35.83568945172968,9.995071e+06
141.00637992835374,-75.35017228252232,-1.0425714595686024,6.6908205e+06
-98.57593162145318,107.80671313582013,45.165597304198805,9.15121e+06
-99.81777778854264,29.273542963797638,11.727047841245327,7.734739e+06
-48.85438820692451,-154.41478058851067,44.88687482824577,1.4409104e+07
-119.76317222129843,-26.900570643333765,-0.35095030770353025,5.8702425e+06
-179.50934035832242,-0.7524732675564678,45.487265985843116,2.060256e+07
-102.62552726877252,25.923459819441774,44.62799573443588,1.0174207e+07
-14.397982926139946,-115.29837776744691,19.457572971747332,7.146474e+06
-9.699964585193044,-144.17915080631332,35.55558821478074,9.9595e+06
-91.03660116123788,-46.291616615887364,6.951155305823784,8.3758175e+06
-87.82694183144426,-111.4561775591643,-1.4742126038690937,1.4597941e+07
8.903114631903492,179.12844242757615,4.539700229444359,1.2300188e+07
-106.63046052001057,-12.879085116248435,5.694088389991767,9.367543e+06
32.40469773767285,135.9723870550273,-1.4230235609917332,1.7382534e+07
79.25751528132326,74.95694093310624,-2.729871249557569,8.2111845e+06
-71.48565553096353,108.503161672298,47.211766004398996,1.6412749e+07
58.17996029576727,148.39369140917114,20.023082468468157,5.7500205e+06
-128.00986690153823,-7.0424386470007505,36.52545206155299,1.1624084e+07
-130.05402209775747,27.5679663112017,17.276581737860813,9.379949e+06
130.78520548798468,-126.88883457258426,5.990605707718889,5.667855e+06
-100.80783370116694,101.07553491875763,6.6207362855322645,4.346487e+06
-74.32746746528758,78.27843215916363,-4.869604491982286,1.426435e+07
27.45677868883334,153.54153322797333,21.667736403020523,8.1619535e+06
14.174654894093408,169.83305455467757,3.2975184030292874,1.130056e+07
30.099985504552734,-180.9008143955126,41.25046233591391,1.2258924e+07
53.57938642427516,-142.69851980010753,6.399261509149872,9.971099e+06
-175.23358582256031,35.78095875966318,37.665683386466505,1.9327918e+07
6.13416098387458,-178.4361732486368,39.7601271061208,7.685458e+06
-162.99912531595095,-85.30577171505587,3.546627419442961,1.6924612e+07
94.01590661784354,94.24378022489657,-1.8116389569827105,9.207297e+06
71.52462600040985,-170.18801910055652,-3.3333723548437773,1.5264486e+07
-40.178602823228545,109.5545882248677,14.50718255828157,7.673424e+06
-99.21979714776947,33.723154785670374,0.4172016364626132,7.3862555e+06
111.35943490358386,107.15984661053305,7.676104830147531,8.011661e+06
121.21708822975442,-27.253648039386828,8.008091817721212,9.351129e+06
-166.36265554817263,-4.060198307263448,17.72726806994025,1.8390076e+07
-35.77514283725844,95.19863965626769,10.30097668165212,7.9344935e+06
-129.30357463159754,-133.46091158376964,0.9507760849345325,2.6734792e+07
7.383763413336368,-109.15118268347648,32.52320721835539,1.1631546e+07
146.6617243961897,47.67181865204458,24.694209208024006,1.0397709e+07
162.6859948923758,1.1149529678787644,-0.09256936445772994,1.4424523e+07
13.867399432430318,-103.53832410416372,0.04178117006903458,9.214636e+06
152.6668497506884,49.637901929065265,3.3391456990630393,1.3749382e+07
-142.9039416411436,77.01989895250495,23.619654058446713,1.1979108e+07
-118.7162585143627,-89.13862411130972,-2.757790941174633,1.7278694e+07
-65.4812057631919,133.89820223928444,46.22045955435961,1.2913984e+07
-173.36011211547708,-27.93319396683546,17.30736314933442,2.0154072e+07
19.018729088651526,163.54595910481908,26.42321714577439,1.0310722e+07
-113.08949963326022,62.751280896377466,28.477129350707546,8.2059415e+06
50.41713063331562,-128.37336149425755,17.755589126270912,2.2678072e+06
104.06063178887774,-68.86013991298546,-4.844667005773078,1.3962699e+07
3.6038615079658034,-104.93356263982005,34.26978499309457,1.1984867e+07
-3.009491904003255,-148.80196403005363,30.675684474045383,1.0842681e+07
-171.51868982291322,32.465276688949984,28.841900943933734,1.4856937e+07
44.27681296436137,-91.58126277014435,27.143565665818297,7.289522e+06
-119.38619945473955,126.84060616099238,41.433668426149424,1.1303113e+07
-87.92694251000528,96.10205646702906,33.90903345554919,1.1097568e+07
-61.95024077749122,93.18470447008082,8.061279091546034,6.755027e+06
106.26477674765158,-0.7605453893699803,22.344456027201034,7.8961415e+06
148.04571601882805,44.00295902066108,32.458764952256374,1.276687e+07
-164.28604247645353,45.568000712165656,-3.417617519054434,3.3220992e+07
107.77394006050275,11.32113263223448,4.743195026630845,1.1462051e+07
144.6038079912729,-30.81751345145318,16.661241116089528,3.6985602e+06
-8.939230319843233,-135.627137702475,20.1467220286991,5.402514e+06
97.26491427815517,135.01815486327553,38.897034877445584,3.0619212e+06
65.65929153143975,104.23965091393859,26.685770564075405,7.8942795e+06
-130.5134063611021,-38.51821203338113,19.989736153147835,9.816794e+06
-59.46772646205699,-88.31750525060147,5.417204695962044,5.7927605e+06
-133.21159025557904,-131.22982267730805,-1.0954607776914782,3.058346e+07
-65.87091356994867,-143.15927840435037,38.533221842164345,7.1861435e+06
10.18321046015464,147.6780151622288,42.04609494880848,9.185421e+06
73.0750666605569,64.76789364511836,46.95441139988477,1.5111111e+07
-0.0430172724959732,158.32080128386542,-4.9028675412599165,2.289008e+07
-102.00433690148856,-120.91849091394783,11.972124924944438,7.1054015e+06
-137.60985229233174,-61.506904707185036,0.1069801063424111,9.679408e+06
72.765423977745,-68.8917968344415,46.196789757124684,1.29371e+07
78.62179802652787,135.11004798034276,8.38293936125279,2.3956792e+06
160.21619127457552,-32.28151634785763,8.506131697603758,8.578204e+06
22.250647561861626,148.66655130198387,12.414049946456263,1.1062246e+07
169.97872438106782,-1.4143882122941704,37.46472265498703,9.443333e+06
-128.732455918237,-70.6394912179673,15.666244397558021,8.538179e+06
106.85955850365309,-67.18437247477084,13.83896413351162,5.3672995e+06
-70.02000654976115,-131.55727762602996,-3.9142804996371847,1.9123374e+07
-131.5281008515747,106.99701883149658,42.65256523997982,1.427156e+07
125.21778226890336,93.21402366435916,-4.875766229816978,1.7468656e+07
-49.28792779611308,-88.35505365353988,31.269991214664,1.300775e+07
-150.8164613248895,97.163930082766,46.41545705500757,2.2822546e+07
152.38468694781824,-34.844652999630114,7.36827457899956,8.741924e+06
-112.97288751342069,-75.25657443573715,46.56002616584884,7.2867625e+06
4.959031979641765,-174.0130055440174,11.87062641252858,1.1917633e+07
87.49858679630881,86.51440256896376,-1.214791146239649,6.3314885e+06
-25.82069351347934,-126.1083066477107,31.339759610623986,1.0851731e+07
77.33554437539613,125.39710849395675,-1.801284285025047,1.7261622e+07
57.14656761592806,125.36500958873143,11.351852118374193,4.906413e+06
-60.39780892532599,-149.78491773766405,16.127323663165388,1.1477357e+07
42.880253509078216,-150.66099070028977,31.811813111065746,1.2068293e+07
-42.98643355307945,-83.0381316751176,-1.4970212763787287,9.060481e+06
-2.6186347051912264,157.84909565428597,-4.916080637313532,2.2364484e+07
127.26951244307224,64.49357625894112,30.321182010821936,1.424058e+07
-150.13644528500328,-101.20519623833765,-1.5562713911194457,2.4894698e+07
-123.63215335670787,71.64274639678416,6.28634127783099,3.9852868e+06
-57.04881236780045,-147.00682768048603,-0.5867395919447518,1.0300387e+07
17.92237941667119,-169.72781761356757,22.87595622868114,7.746815e+06
126.23534219271477,-130.81269488085525,39.919956819113246,1.9769792e+07
10.31954575256421,-152.39464037760445,5.409751851340841,1.1688465e+07
159.3435746725782,-67.11472452662247,39.446666780334326,1.8961416e+07
-35.89867427508665,131.6271976901587,6.918501516592695,1.2448375e+07
-124.82763710754972,120.22156509911923,5.044677785635825,1.0518042e+07
102.00603864312552,56.024025616504666,3.180684598096936,7.444424e+06
-50.96805823013736,-100.15211994753481,44.11318794049759,9.027271e+06
53.81765662378001,160.3220099876051,1.757642194653091,1.2454715e+07
6.657048152131267,-128.56748600877785,25.96461570386852,7.8445125e+06
-55.16389269490989,-73.44386182880602,43.857743901004504,1.1133087e+07
-16.633987174193436,157.36634712487574,10.940532636146871,1.6588031e+07
14.969414961158861,-173.24979710687285,-4.552050465797812,1.3916716e+07
78.40410765833491,87.07526048726942,42.63278273022001,1.0726826e+07
-105.34506137104312,-100.52238090108223,10.56188369260945,5.812065e+06
-76.07093256325666,-143.3497702692137,4.09453333589585,1.2295603e+07
-130.5193711230445,-119.81051381268419,-2.3383405544587412,2.8069696e+07
-157.77455038909994,-58.78655684689527,24.911700500923505,1.1603954e+07
-99.43376752748043,109.39690748732545,16.123273567687068,8.937536e+06
-49.109232664348866,-135.18566927010983,12.839150118772206,1.2562321e+07
156.45171024998115,-45.0944781933635,26.96048962379147,7.5955055e+06
-76.00146081264208,80.63244229335703,21.847568996266617,7.054487e+06
148.3296055915581,24.704786616291102,2.2093153632157105,1.3554963e+07
-39.34227059977809,-167.95376197469477,46.76941211553526,2.3710696e+07
-99.90001066913399,-67.2813996125931,34.73994601902755,1.5565146e+07
128.35914633744812,-19.757257746419953,0.013804862158428853,1.0908176e+07
-140.79807786778923,98.53232572715717,32.47391133456707,1.6111131e+07
-97.81614236519513,-134.46328924538153,45.35103619284792,1.3771308e+07
25.802119078907225,116.16324128653493,37.16726920947219,7.02655e+06
128.0402414669034,-54.7192718827699,3.281382485320679,8.451686e+06
82.99392691484309,-123.73402411156341,45.86279027934272,1.842968e+07
115.87478030808313,-103.4848393498089,36.31420083833667,4.459059e+06
90.74386061783486,-125.95633483966373,44.44654835785039,1.6736649e+07
120.08982021554925,-16.487734222311673,38.76204470589144,9.736818e+06
-147.7330768044544,-35.1950021703515,16.02521883224156,1.4002755e+07
-25.453977078699495,-101.26199968363053,40.879945198192324,1.0527002e+07
-10.734343817397672,180.34654971374943,36.499071249692285,1.7371702e+07
47.6816613137359,-150.60453707478686,33.76433944561643,1.1088357e+07
-171.5759382002946,-50.27022290549334,44.750100417384516,1.0497832e+07
66.38748660480258,146.8501834848161,16.262959413785946,5.450406e+06
88.46874550525627,64.09356215778303,6.339482323790486,7.495116e+06
-41.09745228841959,-103.3258365143023,22.046991962545928,8.676621e+06
-41.552802551591896,159.93517933590277,37.94282621553378,1.1304146e+07
135.65080241845914,98.20316133538302,16.63790119813482,6.760895e+06
-167.2595948048552,-0.24187074039807044,19.606914016454176,1.8036704e+07
-49.178734369637965,-112.04228910424784,26.65333421196681,9.475232e+06
-112.01451950748215,-69.56867054871779,31.96238331136449,1.3750536e+07
99.35780964455626,45.277529326141945,9.973447205670567,8.942431e+06
172.98380599035397,-31.416037442120796,20.10941652464596,6.954339e+06
82.52633300931717,83.10994818940543,1.4439274988071955,2.2795578e+06
-1.6989557705140326,144.44058898001077,47.155576457056185,1.8584508e+07
-13.290682861084719,132.8574787527486,41.4965930170342,7.4877195e+06
68.34660782212325,109.3456180836402,22.172120220213536,5.5983755e+06
-76.1173632570804,-84.61921243819725,-4.804238324751818,1.6920794e+07
-65.57489755064995,172.85369001784215,31.027185624475315,1.3065332e+07
-56.12807912264008,96.99728186341656,25.92899001550366,1.0493169e+07
109.7252014983492,37.80433344852588,32.85175937614408,1.6112546e+07
-141.80579901075262,-25.714585417513064,39.891786274940074,9.928692e+06
-94.92294444681453,-135.4352298403716,29.676313039471665,1.0896724e+07
-50.80389585591317,135.92663149578982,32.595547167468666,1.0339358e+07
-86.06582761192824,100.95544183020712,19.256550060340736,5.5026985e+06
135.45089403964437,-31.985669715388497,-1.877796239686058,1.045355e+07
-52.014389881919385,152.00357997051674,-3.5213500230663346,1.2002318e+07
-59.63104368702648,106.70986502822706,31.840451835043506,1.1516819e+07
154.54130156897293,-92.9087277259585,3.0405479642400928,6.1284315e+06
157.17724787421747,-3.084665780115074,8.52039678333583,1.078158e+07
-70.4076009207673,116.22956744198733,7.423461841273209,8.795229e+06
-7.528982414140472,-144.41704841065274,36.059890664673176,9.796006e+06
-98.94111871276539,-120.82859880832441,17.176856444842038,6.4028855e+06
35.3099751641397,96.87023874295136,13.658820516372872,6.386766e+06
67.59690602129706,76.94807597143887,-2.5554493404458882,9.506066e+06
88.75293630704027,-110.6334413895356,22.3178579724426,7.718275e+06
-31.827784593768225,131.37998191236932,9.381522164579636,1.2874276e+07
50.102487262760064,165.2126084838929,22.731615764639024,7.661585e+06
58.86607059659462,113.13353783727513,9.662530007254947,4.660553e+06
-176.2852998435502,-36.19987285515555,45.19993146499344,1.3988016e+07
102.1780208409404,-112.80418983370267,47.38915291837006,2.6030094e+07
-104.53008735068505,-146.68728315195023,10.86106595419773,1.2576412e+07
-79.64104220088943,156.12615685437885,24.739939036147984,1.0552046e+07
181.1852251201426,22.56076569860764,1.9379180862531964,1.7955638e+07
16.170360458982998,141.44662190816808,-1.6833323098822686,1.7280866e+07
-56.40589017532997,85.50388073060452,44.4045428469681,1.1115353e+07
-103.18124331932114,-65.69749301577085,47.229096519062225,8.827571e+06
-13.073468355643486,101.9067160255247,33.19226261622251,9.393781e+06
68.16702823777354,-124.8586392268033,18.80144189516598,3.6892348e+06
-95.17052153959322,114.55598461295587,11.960940409709107,9.812194e+06
29.44099806093945,97.63970445454515,32.73586203961288,8.3372685e+06
-112.30507083541634,120.61758986786015,-4.12256822620184,2.8162642e+07
-120.11553919098232,-147.0318843012925,-4.189686327210369,3.649792e+07
-136.3486646488294,-17.73255762078273,38.05634598559139,1.0839096e+07
-48.92718868951468,84.75526543785088,33.8781134177212,1.1100318e+07
-38.709200383704484,-145.0646076250564,17.97965677118901,9.20348e+06
20.59143067286317,-117.44613164126281,4.242195874295025,1.0093683e+07
-70.75284613312309,-89.83981884132932,-0.11658526101311516,7.1163475e+06
69.0668030976201,-137.939879865651,18.669909057367605,4.612438e+06
152.58847061229864,-81.80798260775339,25.433094875027887,7.2296815e+06
94.58390980805535,-6.687954988053633,47.383448284122856,1.1087404e+07
64.86077447695499,89.05027862928881,36.63098742495923,1.1700548e+07
-81.27070972623392,162.99314322943832,16.99337796404976,1.8059894e+07
57.554625586492705,117.88547408252747,24.634369243708754,6.351011e+06
127.88256471270864,-102.27879946385045,15.389927486255866,5.66261e+06
-138.24029665870984,-14.313855479989885,30.924951462477605,6.6926715e+06
-87.7104625559768,-98.90297888853343,25.0861798900769,9.827345e+06
100.42255874403139,-14.072241369541757,33.27992668151963,1.5513545e+07
103.9832367396309,-0.6124753179503557,-2.260098917221861,9.022312e+06
-47.72200973988183,162.3348072773689,33.78171273106967,1.221564e+07
-16.393827836224744,131.06075239865487,2.6075930721869423,1.1942226e+07
-130.57616956879454,8.88704157738411,-4.862776564709949,1.6133257e+07
-77.64010835074093,-109.9713741569571,-2.3939263191002245,1.4540953e+07
-98.15191634377794,90.55535807120606,44.14295536564079,7.4463545e+06
82.73984068022332,70.14139512103793,45.837313226302896,1.2123115e+07
86.4330933212583,62.34226257914054,7.924144836290518,7.8518225e+06
98.68543589062881,119.34834858476721,14.864484178068817,6.6858485e+06
-105.52737678589179,114.71516361509953,9.087126760710674,9.123366e+06
-139.04373963577586,7.786210669644021,45.016682695388994,9.839173e+06
-87.30382732323436,104.39202733666065,45.77762474750367,1.0882604e+07
101.14025385364165,-48.33637416190203,23.516441695367583,9.023428e+06
153.69403419275278,104.1650687761924,-4.205537253991389,2.0361674e+07
-140.90378993089567,46.50502887928815,33.32081552336282,8.392689e+06
-81.17199547063554,-86.48193909829286,43.25785706577888,9.727865e+06
57.247538968086644,159.1543319387904,32.9357950238389,8.42276e+06
151.15649848482582,69.8490628852033,13.466032914567025,6.8984005e+06
159.32128073523472,-47.04405638471209,25.247083371146307,7.473692e+06
108.43073756897343,-64.10437151508313,-1.2651503839581633,8.71295e+06
123.99350864663813,-116.07564198826509,41.97526267749587,1.9836744e+07
110.78422029266615,-70.24161025286264,-4.682958574077244,1.282984e+07
-26.1062750549824,101.19342283959071,22.96055615043513,8.783225e+06
-122.8150111262535,-8.41017838925859,35.573010182004985,1.2350565e+07
-149.19103251971748,-65.0250312669138,38.179963933700385,8.960083e+06
128.4651238893806,-23.90357802942202,5.872209453002391,1.0554385e+07
-137.5406604715578,-51.396873255509014,46.500741579749786,4.6700045e+06
-111.27563607094544,46.764077516374755,25.693814263583572,6.37604e+06
163.05525877105669,61.24105981398117,46.247183203149255,2.7110964e+07
107.37485962469077,68.18237604266449,26.360963845864116,1.1255135e+07
-102.3094753911205,151.07575062925275,0.6310153918811242,1.4442753e+07
31.668779307148498,176.2363637862585,20.8568151893901,1.1687949e+07
45.63207599390378,114.72615887765693,15.62777853478212,5.680665e+06
86.53550841657392,-94.08020739661383,23.620620400105615,7.936806e+06
-86.034413067352,52.2545352451414,45.60694913830489,1.2337357e+07
127.12687399209268,-114.33516034725048,45.89708570893472,3.3100844e+07
84.9464731019354,-112.0160787835442,2.255806998873943,7.286339e+06
-70.8749891453914,141.97873280523254,10.6874624334474,1.4689471e+07
169.55164116009854,59.66940270611809,34.92516728996693,9.953725e+06
-16.677171795948,167.39793535937906,27.28697644336948,1.2692048e+07
-80.96328140332231,114.65723215648372,-1.6784107392580436,1.0638239e+07
141.24595245193723,-56.55814655451105,34.821912751526135,4.247775e+06
112.09301825615745,146.6930383692257,39.60102216942013,5.623623e+06
-21.970006240822556,-178.8073806500762,10.233629761277488,1.6649662e+07
158.7770362710865,-17.786160236971455,41.507230939788975,1.4124961e+07
148.16096072340162,43.18838174661738,28.50547204228878,1.2955409e+07
104.87269158722057,-68.09900061741101,32.95334352843052,1.0618529e+07
158.8487878776508,-68.41474797896754,39.778078598307296,1.9894378e+07
-11.92457561605292,-135.99139335631767,35.74461907797863,1.0467812e+07
104.98080792700921,48.838798791212014,40.159380392556976,1.3103251e+07
21.000765693153937,118.09650423889713,-1.7294591666884338,1.6271916e+07
176.41698045302627,-27.3485621634037,33.0582842480442,7.1749195e+06
17.17085343379327,125.48421847774904,4.099953035175302,1.1012657e+07
-135.89447229878033,5.85729744970385,44.106860301452585,9.540112e+06
75.97155270184277,153.06044148742842,39.2396825607741,4.1056715e+06
-85.88526980202013,52.664247057993094,29.609618584673328,1.2433912e+07
-42.12004979022831,161.27882163459446,-4.176825153870974,1.3747747e+07
110.47549763510165,146.67626399661435,45.59036727573455,1.9543984e+07
100.7778937041095,33.82105645630409,29.31192130694343,1.4412462e+07
-163.008993599095,-52.3012541841276,27.942361904678577,1.0333213e+07
-26.501267622532026,-94.69083735918286,-3.3840033019737734,1.4835545e+07
-118.90250597319984,-13.833468855383757,14.417711585916614,1.0911887e+07
-47.56709753767652,-129.82147873156356,20.434464515704132,7.8371605e+06
86.49431507226973,-111.40175022031546,0.39705004095226226,7.2362985e+06
-108.27295965394863,77.69629176620981,39.42556306554029,8.502294e+06
-158.73787023317897,-76.96548296582368,19.21706390451362,1.3368668e+07
-12.423445785598147,-148.39686943592386,24.51974245248719,6.657616e+06
140.27702942037024,33.88357105431723,20.302574039380062,5.155771e+06
32.08278104333448,150.4044595411238,6.817931618773795,9.025434e+06
101.98372884739592,-138.95890858586642,10.859419023193746,5.2790665e+06
163.53173223737656,68.14059659423327,22.757301745816427,8.2865235e+06
12.432129455738703,-124.59629455070508,44.103613521624695,1.2335613e+07
18.649608505223995,126.86574065378448,46.9152810290483,1.6787464e+07
-82.74168182284592,115.93197958031213,23.073824513599586,7.267105e+06
124.82194349664745,94.79118126862096,-1.9392755725999804,1.0503048e+07
-175.04765057163044,-38.53770485870234,45.462914257612894,1.3442158e+07
-82.46183277368941,-127.88814243761584,41.010421647460475,7.9727305e+06
161.33638130431632,52.40012916793316,13.372952660982463,7.1575765e+06
-129.6565095710556,10.72610885264308,42.01434473103621,1.0095589e+07
-132.80780594683108,119.62865161443968,1.5443069392831663,1.8137574e+07
-44.331232452249566,148.46950102439024,31.0056134265251,1.0537488e+07
13.30065143859565,158.79226669742326,20.202453786408835,1.0730967e+07
47.28402688989436,183.44430886101355,-2.0730665471722056,2.5398254e+07
120.8216808101368,-44.810837325794665,20.949838550672307,7.854933e+06
-65.82209235173241,138.05264936165958,42.690363392190505,5.0900635e+06
-4.518322231908513,164.9877334254619,22.35606417289041,1.2408596e+07
174.47001566132883,23.75732610838722,11.254276739846297,1.1139411e+07
-164.56366634418276,22.79809294142052,13.573537881307558,1.6471782e+07
-98.69043236405402,149.4033514357754,33.27467767836657,1.1151552e+07
-70.65512513322014,-163.5301869768344,12.348055217178945,1.5930144e+07
37.69480618971954,153.57148078522107,30.433316626967986,8.843375e+06
-70.40190086836145,111.19437486308135,11.281363754097754,8.560363e+06
184.12755682902787,4.018026322491494,9.279471275602267,1.415248e+07
96.87457644275304,103.76375761937125,9.828871028920428,6.054214e+06
-78.34585698044964,-154.6518471949966,40.369437954230264,9.545894e+06
-41.94402413393502,-100.94294910106818,-2.295742136806768,1.1333346e+07
90.2603135856699,122.89244441792965,13.748758485509242,5.8803215e+06
132.9179652450294,69.40661153129389,7.380994961530679,1.1126276e+07
-77.37101747833965,107.31492206378611,43.8793797831732,6.378308e+06
148.01855796637284,-12.98256404869963,0.1199160815327424,1.2434201e+07
89.36183251633321,29.329867493535115,42.84230729940375,1.499065e+07
-12.33535186336124,-159.92624132264774,7.82641876890185,1.4156734e+07
136.11279967712335,-2.009553654017367,8.446077362895673,1.0245655e+07
32.07795379867838,-141.4148717657584,43.96669949994752,1.3430204e+07
-134.94841205390532,-118.9707451878057,10.86151073168601,9.221883e+06
-17.64314009708187,-178.97741236504126,39.774187290024685,6.8124215e+06
-72.60210460858599,132.21737993890468,3.7880958410309313,7.707583e+06
146.54996598574485,-101.6654445393506,21.43298255113204,8.615188e+06
-125.81964941037498,4.657471527450099,-2.6132428762926043,1.0507658e+07
117.67931308070992,-80.98278636093643,30.499248678075347,9.173415e+06
42.754330202809086,-127.99244911317915,-4.408745421153015,1.8119936e+07
-68.30077441466801,80.4421467676894,37.60663777338499,8.653772e+06
-142.07828500483004,-101.73901401049936,42.10377043210691,1.0194394e+07
-24.35238327232753,-124.68883726277116,46.92888186697395,1.5785732e+07
58.16365078035551,156.9625435530059,13.284963584414887,5.89751e+06
-139.9739747920849,42.48744782821484,45.211962412468615,1.2965561e+07
-141.20743973276365,52.82454800460269,17.07911276159373,1.1207449e+07
-87.10013758620998,155.11148083178625,3.416017592056307,1.0908679e+07
144.83423270223295,-76.20698846782714,-1.217040281415613,6.9566225e+06
40.34700260721712,-182.52326658662713,45.455239759864604,2.6317972e+07
-165.24656078187837,30.566705007695504,46.33161279224714,2.0010564e+07
32.657522802036,143.08764861996616,21.94711249569717,6.7032445e+06
-28.35469213435303,114.77936037943124,19.819370812345692,7.092196e+06
-135.460359464965,-102.84422390373402,18.7911793050399,6.071884e+06
107.39227825449365,-47.8265913092188,37.438779079136964,1.0205447e+07
2.4722026243495066,161.70994498413302,43.910284265608084,1.4393465e+07
41.00133337960554,-115.86147413257501,27.518043811246258,9.380848e+06
-18.145859513012056,-169.80937749864347,40.17711317304167,6.8197885e+06
172.25307767032024,40.01740840361819,30.865542515349,1.1216324e+07
-57.05875588905042,156.8927389717009,34.90844593826681,1.0909576e+07
107.4297530629271,-25.305577604101988,31.2069076174202,1.4233495e+07
-142.54185794172366,-73.84327315243891,38.50721926572353,1.014327e+07
-2.6367562664990487,143.78531501046427,-4.641780554524691,2.1026904e+07
-31.939623661703507,-147.81612810660846,11.394689868785584,1.3854977e+07
181.6809163046218,-14.38745320846806,28.542015093597573,7.268037e+06
154.18006273063452,-66.39846494388087,14.49453729796036,4.804293e+06
159.17077896962917,72.16897889044833,14.046919329810308,6.6479125e+06
-17.082783406599816,120.61259019367725,23.653852617771683,7.975115e+06
134.61708113167612,-102.99256397208416,38.472704622269326,1.2894259e+07
108.1105430866395,-97.83772182615422,23.284285368492874,9.040732e+06
-87.2364776029043,167.74139546566897,43.850295378555984,1.0912657e+07
109.83897533314763,-86.20916210280515,0.16403142138118634,6.0078025e+06
-107.78571567790979,117.19999354869744,41.325626961004126,7.533938e+06
-87.01317454086114,-65.36141439743241,38.02758563316863,1.5378634e+07
-131.47655667211603,-94.41528411077815,35.74642984551068,1.2461589e+07
2.080263314566764,97.28317998611215,2.8092041627033075,1.1502433e+07
-77.24466461532336,69.26649500468494,22.02279517389833,7.766742e+06
-107.74874635966265,70.86967475252067,2.3404922915614352,5.160016e+06
-114.73497057048898,-113.00871886842513,20.167441209848747,5.4156125e+06
-109.62627002706519,-35.20254269384765,42.4448257204496,1.226472e+07
-89.13397134002983,107.73444551164175,6.313580942645998,5.5571845e+06
58.368343216511,-120.91276073872454,35.783828971640915,1.0209821e+07
117.46907849811572,25.617124277919856,38.8330802788104,1.2602905e+07
-129.724147441771,-35.56940479471632,12.185552441351387,1.1464732e+07
-14.873554279558618,148.1876076549849,7.646474838968884,1.4357859e+07
-114.28604726808871,-145.40126720043585,46.46382273678615,2.1436458e+07
103.72009746999476,-131.57977573466022,12.381714083158354,4.6732175e+06
95.79117012166824,-74.8374482345806,34.046322929962834,1.0420106e+07
54.75086405795483,146.89740605613792,11.410504944558895,5.385622e+06
-178.9368396386648,-15.270894953936931,20.308789400351856,2.148551e+07
-102.59589001147403,153.64122429750932,17.385378019353677,1.7482122e+07
-57.39339837763983,-88.42233512665447,10.694515325939141,1.0513028e+07
-133.57582144731484,130.0402750858496,42.3375072655403,1.6602201e+07
-43.529554143951884,116.47777726580284,25.501491334987442,9.033661e+06
103.03407144798882,-5.908795007315547,9.63168620556583,9.755711e+06
-143.59514092443345,-49.547057319550504,14.702092928903665,1.2485135e+07
-29.791876848490688,-141.32005642571391,20.577078519850634,6.617825e+06
-121.04415080199891,94.12988435121275,15.9140235572792,9.860771e+06
99.48232077099277,-66.02313434195014,19.447900724566228,6.211146e+06
-116.01951169186005,33.18923072770801,-2.1017245675151126,1.1975436e+07
-153.57146067794912,-39.44079040123373,8.590843591013117,1.1851973e+07
123.3170278241385,81.13794446218049,29.070948506884832,1.3151362e+07
-104.93610407537005,114.62727830633537,42.665642413503214,6.6190745e+06
-17.412565589212022,-129.28797273927822,33.71551629544753,1.1202273e+07
-176.45790203337674,11.603710477066187,37.45449697081656,1.518407e+07
131.62665432322922,64.57879870166545,-3.4617292497738057,6.3850595e+06
-174.3240543898089,-56.48406879110976,35.577432089704075,7.991196e+06
-90.4732278513285,89.85460051055685,17.69623281136173,4.2940345e+06
-120.6035293037559,-18.424813016625876,41.58191207751221,1.1821039e+07
130.85882748613864,-15.88265133481275,37.7579556748515,8.0150255e+06
-161.68694580049268,70.17122305461669,19.566834829468178,1.7568896e+07
118.71327302559928,115.42030218640906,25.490631942404033,1.0720779e+07
138.9522684478551,-18.0753978880727,23.878024293603513,9.86643e+06
-137.63660926542846,53.5996567472021,18.677934152785724,9.8286e+06
-63.68842526981644,75.89288821308304,41.954295201801315,6.689879e+06
92.07497312346999,-129.87944339724677,3.428193895575102,6.9469665e+06
60.65396745986579,-100.89708203358461,6.211301759530802,1.0016981e+07
73.80517342228075,86.50930040009905,-0.35585530404543925,6.176996e+06
96.99725225585928,-53.904814247963685,17.12837624914041,5.4381795e+06
98.73178253185284,154.76893920706812,5.2201232972118365,1.2347315e+07
-22.827088706129842,112.20062671195114,32.653236965959586,1.0166481e+07
54.749039663181264,-113.64239105277281,14.951702969639063,5.4958235e+06
-32.422258132947604,-115.04060101653248,-4.035246848275311,1.6536921e+07
142.52099129694471,53.425928950486366,43.197670227011066,7.1538485e+06
-106.9694097588512,-11.103745305681286,23.54129460187574,9.128517e+06
-152.4885698792403,-0.8862327624793807,34.30077614187121,5.637345e+06
157.97879439912327,69.89670693445544,8.101032261304628,1.3070216e+07
-56.97456058150462,-155.71162403828748,24.843521605308744,6.86644e+06
110.44263595256194,-113.61346506807455,10.359532966098675,4.427919e+06
96.5550527973345,18.13595556110431,44.08256868838075,1.2375241e+07
6.179000901341794,-183.99762831971645,20.444498865092243,6.231836e+06
99.0951869715334,-25.641953059898896,46.56797898098884,9.807214e+06
-179.7827857474711,-3.5986339664474656,17.510557242343847,2.2044356e+07
99.41508117716313,-128.52096291200655,7.126593586749803,6.1192825e+06
-1.6532675005803128,-114.55831192512042,39.320547769926414,1.0957607e+07
0.41522494294329704,-175.52293986221272,43.60528711841385,1.6290081e+07
73.04318285280533,-108.61155700874284,30.473167947205134,1.0730938e+07
6.352623172178396,155.77044310311135,13.155958047778299,1.396683e+07
118.99901273062511,51.98940552824545,13.794058107557788,5.767893e+06
-126.71639794883988,-37.30267879090184,12.721394136839702,1.1164337e+07
-145.41128538012558,121.1324464643755,-0.26888930418127316,2.8848328e+07
-98.81939505076348,155.42138002987855,25.546141744500222,1.2421299e+07
13.626308964065089,106.69926180353417,-3.4505395349451162,1.7762378e+07
-81.22033983080783,63.411697129021206,31.38149555632641,1.27006e+07
-57.54998925492748,153.8978685179244,35.62045454204786,1.0364046e+07
-131.79128281226184,38.48779947354234,2.99064813138925,8.138012e+06
-93.28359907257907,109.70739291991964,25.38393730601417,8.447242e+06
116.89550712416565,-46.44643857867692,33.5173405391124,1.1241547e+07
64.77104359786472,88.28136333324272,24.44303710289419,6.820539e+06
72.42129430235912,-88.40448836087309,42.759186772693695,9.191007e+06
26.743012344657384,176.3047299592974,8.461016024110817,1.1916756e+07
-44.27247180597885,-98.998658705466,27.98749187991677,1.0786656e+07
122.2875057584249,30.82002656999464,17.350291075425815,2.1469318e+06
131.88718310053207,-62.193595523118574,13.135091279132755,3.660527e+06
127.69242111295796,19.312478651223756,10.481419512801303,9.128551e+06
70.99694403864135,162.7471839592219,41.6420462464476,9.220545e+06
-50.97389162101166,145.3081527819902,36.988795621229144,9.176572e+06
-85.91325710124184,-151.65717317805843,32.254920157909766,1.1189115e+07
-112.0472890905667,75.43333772893487,-1.570764373408675,1.4464773e+07
99.94132765968902,-5.541877970796662,26.56925787887097,1.1944293e+07
135.3044612696856,81.26987382933225,10.95673304291586,9.399702e+06
73.08889644708597,80.49615491171534,3.9985555409377747,4.0294165e+06
109.64672118597298,28.30318730322955,30.496741502000543,1.544697e+07
53.13919728886813,-85.69475194927105,45.35912525213099,1.3219804e+07
-140.3234335262838,-16.56535361071124,0.6506090296423702,6.9324475e+06
-129.79276165723465,112.20933077475901,4.279119083512554,1.0755387e+07
142.98191182605342,122.45767772065939,41.73311403813092,1.1615686e+07
138.99546159158552,-102.13647632305687,16.274706183120774,6.8423955e+06
147.01248171005818,115.90319980154453,-0.5889560787926464,1.8033298e+07
151.5782470962954,-56.93147502251122,9.860108086209205,4.8659385e+06
79.90118264872774,85.75919215961585,23.340113063703026,6.6748725e+06
136.13563297438048,104.22527590418042,3.949862055204736,1.2192718e+07
125.96222825020344,-53.14395997198389,44.73374076048567,1.2671076e+07
111.26006901634129,38.58077159240722,7.900052104879645,1.0559088e+07
145.6747889615424,26.33509479689275,38.12574766193762,7.050841e+06
113.94650252881017,-103.17644318832562,24.895018188451893,9.619208e+06
-79.86428207281509,163.09335899993857,3.282767245788266,1.1404115e+07
-47.18959038735156,-122.1788362953708,29.340158168240208,1.0172067e+07
-16.578588163218512,-171.27870518338108,25.343128976619095,7.479546e+06
-83.7120150866105,-90.29497524759576,0.7746003530101938,7.3052535e+06
-151.75160913695976,75.53202254506812,4.97942914074946,1.0457053e+07
-124.38915789296136,-56.53105246485492,7.032838153300486,8.2927065e+06
-181.5264683019348,52.908530394714205,-0.8922862067062264,3.244961e+07
163.0018901577389,-38.96296997426646,29.083178006802896,5.79714e+06
-9.22551658297661,-140.10587649968113,16.0449196461615,9.025367e+06
152.68095236896147,9.281054165268984,21.96078345956219,7.800763e+06
-144.1860271843713,5.258484414085018,45.957424423964326,1.0468626e+07
141.70121554789603,-71.77058935845176,18.66159097497872,6.974507e+06
41.79337499401504,-132.98703411138533,5.993738223409194,1.0680528e+07
-106.20054435099667,134.1027344525446,7.113629836404272,1.1646015e+07
-154.35331055430046,101.79521631646865,14.728885282545967,1.692572e+07
-41.43906049251038,135.61323859847454,32.937258034932114,1.0415629e+07
94.01465930979703,-80.8365298103848,12.807502091049745,6.29135e+06
-87.6358653146872,76.91002706540968,36.86626849287142,9.861006e+06
-103.11288302597607,-40.829410519204146,33.67033708788484,1.5500628e+07
181.83847047972688,10.210500630652575,46.12047499969139,4.1376812e+07
-140.59447557650216,-51.01109449625608,19.687620347552215,1.0919067e+07
80.37979503338471,157.2234746281997,31.890644190912276,8.432554e+06
-38.44226951262354,109.01649059545669,29.968020652297547,1.1177934e+07
39.35621018186356,-116.11835326770894,32.89733084935673,1.1860603e+07
64.06228602490154,137.15753664787587,20.26771891955868,5.3225025e+06
-64.78906738394409,112.35866621383718,35.99622128133384,9.375413e+06
122.9142275754503,5.772319373206784,22.804063867476874,8.883184e+06
-18.925462300999698,171.65056897301707,15.093373395908436,1.9108842e+07
68.25212877345001,-113.9384557602916,42.597716307756954,8.692113e+06
-99.20979915899957,18.5682013654573,19.977093514058907,7.5630055e+06
89.6377412530016,156.12434424453392,23.31605878944397,9.634981e+06
-140.17418804549533,-49.235897669676916,23.81121109063448,9.151114e+06
63.31448976164051,-119.86328261375418,-1.5129373959589285,1.0793773e+07
-79.857235522827,145.09140983191725,17.14932216121128,1.3757257e+07
-82.71822033010352,62.096595880437235,9.009082495414237,4.355352e+06
-139.50183470440822,-110.86569025075028,29.492773894115253,1.2317863e+07
-23.008580804808645,-145.0962408121842,47.08536497163366,1.9685066e+07
-19.464054550737416,150.49457165481715,17.866872955219883,1.2531711e+07
-143.71872190110128,-70.61085920052102,12.741877069901726,1.0412014e+07
-37.08394403071003,151.5598353152409,4.218101183935682,1.2105826e+07
47.934301828542175,-94.0096788439868,12.900283098752933,8.97467e+06
-91.91575858922985,-161.53358528825837,-4.537805934270773,3.0566374e+07
-84.10745613170442,-66.15753479712967,46.464343234461026,1.0406191e+07
-174.59947350556791,56.35354686678573,-1.0471722944784156,3.1168758e+07
51.069606318170514,83.10503811442595,-3.640085105711162,1.4201579e+07
87.66509647301837,38.61070300305988,46.12140479225777,1.3066005e+07
-124.27188439093126,130.3510602278787,35.821317348443806,1.4987495e+07
-30.112503391700585,109.21755534790232,6.603767168474796,1.0613707e+07
107.83722086289646,128.24032215126488,-0.5039441159359798,1.6050891e+07
-44.031757040695,107.07192650021142,9.694050732678644,9.154195e+06
127.78072347052091,26.053500816332786,27.926236791617548,1.3670618e+07
84.92507042207598,-108.77051244587479,4.056268317938948,7.7097325e+06
137.76336990044138,-50.65257996474034,7.915780629494132,6.6765935e+06
20.901136308635103,-153.65970691074227,-2.520573521778185,1.1050897e+07
-102.2795971341107,-32.573123788066084,6.387811619238455,9.016449e+06
2.9534275396739247,-162.54109086174768,11.17815116889069,1.2381924e+07
114.58747444218994,61.37154172481587,17.968407196242694,2.8181522e+06
125.17643560467275,42.053008173119224,35.52979857125085,1.4062488e+07
-117.6175652976379,70.52992851726685,37.42407790074508,1.0122327e+07
140.41693755820307,54.672115660939625,1.1194219704751942,1.0432186e+07
-121.31181706947451,-2.748184295308448,23.536784205604448,6.9469855e+06
87.39477578490488,-48.98747383246996,36.87572209204054,1.3239084e+07
128.18014052646538,-80.4844565837671,31.334358963085204,7.328904e+06
-170.76777282452719,-10.11765606993302,7.651470832337996,1.2096185e+07
108.66059775686978,15.376000092653413,38.70224694243471,1.4378683e+07
-93.41881668255402,104.93279858882359,8.96338074830686,6.81911e+06
101.15280370447425,136.38512423821936,23.28697098951487,9.582666e+06
132.35925279883986,-76.83816528917147,3.9247240225844577,5.5294985e+06
89.4214497339483,-84.68073451509125,45.785824779784726,1.2138454e+07
-106.17291765024932,108.70772361350885,11.312244368324851,9.25877e+06
37.73633915477396,-138.51437077172818,45.32265057859455,1.6026983e+07
160.02066265944904,53.072333454491485,22.38687394159228,7.876916e+06
35.642873141960195,132.77084067796181,17.00163370522438,6.8551155e+06
101.41665858182074,-95.47243037372048,1.8104373392281508,6.062699e+06
80.79037699570677,-90.45320825366834,47.10093640007419,1.5185988e+07
-64.46117325937632,-158.80991941331098,7.457752068890113,1.5868343e+07
112.31944037695081,135.66670623542308,42.49981028568596,8.513547e+06
-125.50627572054731,55.77240828530412,27.500116025837414,5.88283e+06
15.872237252353216,-141.71798745569376,11.583630300662467,1.0792901e+07
-100.71539414934034,44.640410104449245,9.48830229968189,6.3676695e+06
-67.89600099733266,-134.95694615260226,-4.680815948576671,2.113164e+07
13.23940297203464,182.25645529375726,20.971655561976462,1.5732508e+07
122.22068266097807,9.738609794750289,6.906555866862007,1.1565437e+07
-108.83466100332852,-59.111729562063175,-0.6003309441317253,7.7670905e+06
121.14430778488499,77.3961283579876,-2.281102511145852,6.2530415e+06
23.56054760588964,-101.32802270691003,22.63426125181382,2.9497848e+06
119.89544698052259,-18.101132700575306,12.714727951441002,5.8990405e+06
37.892014725828375,128.72041428758553,7.478380924812364,7.608067e+06
-68.80539551439915,-140.63904955630403,3.05127304402444,1.0458894e+07
-65.2472688707602,119.42543939240579,18.956430720158966,7.0218145e+06
50.8978640443884,180.72268404051977,-3.3238658283100735,3.0378616e+07
-23.4541228710261,-145.89669384287305,25.1512648054607,6.8623335e+06
112.08840768947124,36.5470813207302,-4.409489295895442,5.758019e+06
102.5379968242026,-138.1208959643537,44.01835016167031,2.2631512e+07
27.584600167949475,-176.0947796179185,20.324807462785838,6.468375e+06
-75.84028099052907,143.43215088439308,16.997642687866517,1.3247396e+07
92.0847137861482,-90.90074347297086,0.3323958185928488,7.384369e+06
-54.23102056586247,148.76113802024406,6.181535234272082,1.3366363e+07
48.85406423605204,81.89792992470268,30.537392983415508,9.312582e+06
115.31566539141944,101.05711424835619,16.268637060242906,6.1333245e+06
-120.69913813042845,-137.85685648859197,13.576889915679608,8.1121115e+06
-12.571393215078134,-190.07058092375527,-0.7976563558899123,7.050137e+06
55.66752936456939,172.99311665520355,15.796882156766781,8.1498e+06
-39.990424070794006,-118.76860302483765,-2.5159056831943802,1.1658924e+07
-95.93521843989569,64.78563959043669,26.178366726288886,9.025605e+06
-58.67648597233011,154.45097097463872,36.84974853808659,9.915405e+06
169.34183064775164,17.390169596924977,0.8755654204326471,1.5832392e+07
-70.9388323010173,-123.11691662581569,1.292470520002261,8.1935435e+06
-99.2223195238815,84.81288534680345,36.781261947634675,9.825763e+06
-111.2594618082273,136.7152812464637,41.67094984155186,9.198729e+06
-60.58220049914485,156.63138434920927,29.87285632566115,1.0297206e+07
149.03088527521675,-41.41094213543167,3.2455975975211744,1.0209974e+07
-25.702212338272943,156.12024949231267,46.326266874164965,1.7356854e+07
-151.40907731049143,5.8640273199223145,26.00997987651063,6.987401e+06
-118.33834285662891,19.844391287726722,25.729730209706087,5.9507975e+06
-34.69262560020701,149.6169946304928,28.672092705443823,1.0150825e+07
-169.79169291853788,22.461037152438934,10.447279583500691,1.458976e+07
113.52626451998545,-13.620255317033697,-4.149533355329399,1.080422e+07
-115.38996254063689,-135.5979859342817,17.772753143196432,5.6457595e+06
15.72086734986513,-137.42212111295325,10.71272603380479,1.1353237e+07
160.75121723378498,31.83544399652422,31.39768953286867,1.1331457e+07
-100.54259239972384,-123.41598263005417,31.4330305929495,1.1974335e+07
40.824350917694574,-114.9025607388189,12.627603362448433,8.738757e+06
-150.7579964313061,95.9440659445516,-0.5246600860207825,2.7507636e+07
91.10498638192144,118.07910404947069,2.8940205342445346,5.2363295e+06
148.98254111764027,101.59945786337647,29.395665705398624,1.2886806e+07
101.23408008747889,135.34204848970444,10.990771654305345,8.761946e+06
-31.490538937445596,-150.68628350863187,35.09995953063158,8.37555e+06
175.08735228933625,42.92576377914631,27.489191551838687,1.1675665e+07
140.38021361183502,19.14396754000248,3.6519558765130062,1.3203376e+07
-120.31759709000478,-15.110765482740563,27.814006834762623,8.943689e+06
-143.79476398142924,-51.43646649615848,10.249951872812753,1.129989e+07
11.023631852011022,140.6168162494876,7.497247952409647,1.1761977e+07
124.50260128981421,108.03918819489462,8.205692611182528,1.0668338e+07
85.90723397020173,123.46440228428948,4.5621499568914405,3.409033e+06
-137.42004731724154,-4.538660883081349,23.8685980496573,6.9934325e+06
-73.77071446919263,-139.21090452445534,40.65466794134394,7.223677e+06
-127.57459799471889,36.36509275545845,22.887962969497547,4.6531815e+06
41.928502908209055,-114.11234729793293,45.58041368523592,1.3912357e+07
-29.375332454574163,-129.5619207539164,-3.356437901259227,1.3506446e+07
113.75624793199866,-81.62319884374662,26.103214346589326,1.0075468e+07
-73.00462880502829,143.3699353601342,40.63858242707798,5.112183e+06
7.18138365443059,141.57411583688003,40.99287808801654,7.7837775e+06
-120.0825497252196,8.942620346933069,14.794044619763692,1.0145392e+07
13.908793134145014,179.87022038819822,18.745445620792395,1.5874663e+07
67.92698267731038,79.95969695665906,9.137246565110617,6.011708e+06
54.7980710290326,-99.74341792622829,14.721392202644795,6.637304e+06
-15.83118772358833,151.5196869217599,-2.0403194655521864,1.3586938e+07
-46.77302279642444,-123.47553156699149,40.05205565304567,7.917077e+06
98.4313737593622,37.717147249446185,9.512399645750179,9.411843e+06
96.80559225953505,-36.4773659243875,22.25735049253583,7.6819825e+06
67.66032234311217,-137.01921908882886,45.07422174276356,1.6790292e+07
145.83372419027415,-60.44200101307941,8.505732191475266,5.2245845e+06
134.51973266920737,-93.32456234977214,44.17807664500258,2.533291e+07
168.65596824727027,-67.17850161251539,30.811687040284014,5.2222625e+06
99.55219188808542,154.83435655498505,7.793835971157047,1.1501629e+07
-27.828079834424866,-156.4546953760042,32.50099537987143,9.05854e+06
2.071896115508622,182.06961257232496,8.187299128891597,1.7083342e+07
-123.26415673025761,29.241916705623847,34.60566092120831,9.903628e+06
-133.7474230488337,46.81649586456612,23.425366262134393,5.689652e+06
-8.719732504028997,-127.96814586204923,15.910634043315905,9.287902e+06
-139.95160102276282,-88.39044900587933,40.00973345749993,1.0067603e+07
52.57281835760858,152.4673708429545,31.449245271951575,8.174084e+06
-46.36623594665136,-137.9025263267105,29.940711256367038,9.387665e+06
63.1087217003344,169.41193122509077,33.71525692334816,9.36947e+06
77.01698826393499,88.9655192647545,27.344535219900678,9.472939e+06
133.99673982404545,100.49442285147785,-4.402201354346649,1.868641e+07
40.6976836824071,-140.7820631899035,0.22970076617216587,9.512787e+06
-167.7877396360816,13.48544694549557,32.88779819980071,9.555982e+06
-64.39507779057288,91.79746302706053,-2.0814532003819535,1.020935e+07
73.43345266002717,-118.13148754788169,44.67643561491872,1.2781525e+07
-160.69567801929236,-64.50470295944251,10.2761855090388,1.3336939e+07
27.342093983935627,179.0948486177076,-0.539838078208448,1.6892054e+07
47.059563941127806,178.06919243863422,11.919688359671863,9.187691e+06
-17.34184010934331,-98.51675387201371,-1.7526675632917712,1.0705367e+07
163.04303018964237,-65.18270058061381,31.698582615316134,4.7475445e+06
98.92052450515035,-59.7823858271299,21.347333623754984,7.2971925e+06
94.64765305983798,-53.18745337747806,44.68389246441866,9.254775e+06
29.813621060883264,-172.5830019562089,22.432735128846247,8.506466e+06
132.95346765001761,-32.86354379571753,1.953137210649318,1.0660081e+07
74.68913362115723,-131.741489278034,1.2345460795446979,8.331054e+06
0.6899115406842498,174.0590949147885,45.79348948560666,2.1028462e+07
-97.05504511387453,-50.128035500733944,41.08036813633448,1.3879186e+07
52.89352859380219,146.05280315927706,5.950001547208086,5.1339715e+06
111.88742368661212,-143.6736862316411,41.309450366554394,2.0490864e+07
-120.23730175032043,-126.68167656861375,24.58465825091952,8.872091e+06
22.07649181170487,-141.3434001055918,-2.391969762548715,1.1862158e+07
-88.4848056275923,-104.63878909683908,46.266410151390275,9.513252e+06
139.39187537410038,-8.969348607086658,25.630837394028266,1.1151184e+07
69.69766788192311,-162.43218437275573,45.18133571471049,2.3946244e+07
-171.99611356341254,-59.59256361409908,-0.6360210330290166,1.2094595e+07
109.50420044665606,77.48068264444282,-0.11532877497558823,3.1050948e+06
-120.08414423954999,-76.28778130578957,44.42577882893676,7.631813e+06
114.23011285398985,-50.88658934796467,46.53473796650075,1.2908312e+07
134.67630116253486,21.95648368497234,15.067459785053789,3.3865728e+06
-91.27303456931676,47.90207989199325,15.000257072340359,4.6008965e+06
99.92552009697022,-118.65434006274702,35.56663841992294,5.806264e+06
103.95583126851659,-10.45730561076698,44.78832287856044,8.763484e+06
34.582640768219306,-160.66043512743033,-0.09433000156061243,9.118425e+06
-152.27050997915947,6.53667064145651,12.405375390884288,1.4548016e+07
-148.66357706915872,107.7462783305365,39.96926529996704,2.0914376e+07
-145.48319959261042,109.38192255454481,14.048483069670024,1.5917736e+07
-0.1327506627480659,148.61234104554387,22.57766373435526,9.065836e+06
-87.32180924090089,-140.0637978368851,30.999784790431555,1.0832138e+07
-101.51570538334255,70.42225363262179,37.17863944608821,9.870909e+06
-136.1897769647591,-99.1851847504531,47.024640090823596,1.1385086e+07
9.222369356579918,-185.8625986889184,0.7629121883879674,8.439763e+06
-55.28767481283637,-177.63566190626642,-1.2476351939125756,1.5377056e+07
-120.83619103538403,17.396125081589275,45.38497426928335,9.890497e+06
68.81828139949988,159.45887553034783,39.89077433639498,6.3902085e+06
111.72004078787818,136.23455392694444,33.89415433840974,9.260527e+06
86.21999171526471,-145.4343090705544,32.6924255856519,9.940102e+06
-61.0664476433899,130.71890026144735,-0.9455180021556835,7.921976e+06
96.22660012503326,89.32384830187556,46.46190381556212,9.728119e+06
127.43962562482392,0.3654175454698816,43.13229124738799,2.882545e+06
-53.88609545128759,87.57356595893839,-1.429858111884422,1.0168929e+07
-11.690430130325524,-136.240167170258,25.62916893886165,7.4256055e+06
115.02198914700602,116.59834402087712,15.291790090674239,8.432102e+06
-97.09839376354506,39.410829647385754,21.671954636083036,6.6823245e+06
-73.55548653103456,121.3962140179363,38.12911297241813,7.015812e+06
-76.48948174834591,126.99055833402413,-2.331877333775648,1.1803164e+07
-128.60735745660597,-12.256582727367743,34.340948483348285,1.0989615e+07
77.32250811954964,148.83780526231334,5.54356286947888,4.8907345e+06
-66.42995925943126,-100.63032534871556,-2.9016438523522368,1.3709271e+07
172.17416172937885,34.786781557270075,-4.794289363245996,1.2504217e+07
-79.30306879521778,-62.37259916090832,4.414939963449084,5.7489205e+06
44.08164954906843,-183.97202263238367,0.8813156252450002,1.0137944e+07
-150.49882543190293,43.111136114804964,37.41737226520258,1.1943915e+07
-141.9008058629144,4.9434114430420095,12.732290507997742,1.3272044e+07
-129.60617106814715,-71.7489167399192,45.17934841987789,6.0657005e+06
-4.186117885725565,119.38479192138158,24.44929714984744,7.9927405e+06
147.74000904831223,-23.58710816400395,33.45251087720306,7.5278595e+06
-84.85452377772967,-142.36671945818313,17.491870589894194,8.971677e+06
99.15654025134108,121.77420496258763,35.917772705893135,8.127841e+06
164.6569677319677,15.30691874812686,29.129013106062864,1.0592232e+07
-92.73883967153292,38.63629378347926,19.7841028332504,6.4126135e+06
-77.28673101687589,59.71457088478553,45.08452750531028,1.1822475e+07
-72.04117406084806,-137.1000067419431,10.564056938928491,1.1984563e+07
-12.403982928439262,127.39851907361634,2.9684588302474237,1.2094505e+07
123.46650325930995,70.07719176603644,-2.4778074875975937,5.2091825e+06
-137.3003390688075,55.019931982868066,35.27532839717943,1.0208745e+07
-107.24909039101074,-41.8644183921769,32.773266526581104,1.4803497e+07
-43.414585137306545,-154.47635751676955,-0.5103823750385544,7.787839e+06
-6.06321546711618,110.30592563127288,46.15795795722746,1.6898538e+07
129.9620162894064,87.5444342232887,22.49283449861803,7.799858e+06
158.1408410780316,1.2638194172881185,7.781202996194154,1.1831797e+07
80.436957767845,117.35020668726253,28.842310882305384,9.247245e+06
29.053354817395725,179.1523602836332,22.363346308037833,1.2426882e+07
32.99541638715718,-169.24738047160895,8.421029195930819,1.0712331e+07
-31.401723507265615,121.20806466468281,38.602201907914875,6.960078e+06
148.0949690443045,-84.67698546637439,4.3074125880794805,5.136947e+06
-131.52282626974383,46.73578723616362,12.135913889233901,9.438169e+06
84.79828749631741,114.0831227374021,21.049607942551805,5.894416e+06
-97.64704909693323,-51.18195403656779,25.664649048627755,1.1695393e+07
-111.39822846769074,-8.858240351436109,8.277234337643028,1.0352876e+07
114.84388712048519,-46.338547957334356,20.156725026512127,7.0849635e+06
-125.6334026396698,12.22811223192025,25.435823255821855,5.050162e+06
57.77799264105903,-113.03967028616783,13.756476179137737,6.488259e+06
-133.5672557226364,-130.63443605138963,-1.9837870555376502,3.191155e+07
-101.71438271980686,-29.007613715035063,38.530995935983135,1.5182534e+07
-90.53328052186443,-67.58752832319672,33.32514521850146,1.5620843e+07
48.81920759792769,178.32986343684627,10.683600128316176,8.184969e+06
-111.5797592021587,-146.2503278412794,5.763296435348293,1.8279108e+07
25.454120279130393,109.8757539397792,47.015157121697484,1.7594458e+07
171.92061267806872,38.26179462254578,31.11650620980177,1.1039256e+07
103.48618469478043,34.597389064812546,-4.2351361461161385,6.0820875e+06
-98.0837828732105,69.47044641436588,21.020288706964237,4.6491895e+06
-142.3255266128129,-64.8633798007753,4.15678741531531,9.403443e+06
-127.79870455762361,31.497254461973174,17.159865592312553,8.835409e+06
-72.06535540007053,-95.56785152698373,29.3823866572889,1.2526169e+07
-8.570563570153922,-168.44594554750873,24.212590487295692,7.0992005e+06
92.07972076760058,-57.490795712490346,21.205071808658964,6.665462e+06
128.23418928517947,50.166462866552926,34.06258651840817,1.4340819e+07
66.40410332796677,-102.2400219141831,29.349760908913726,1.037688e+07
5.61456125034033,-106.91347530041035,35.895894654782445,1.2094195e+07
49.71641604573961,-105.23510206217561,34.785667536107574,1.1554475e+07
-61.82483694564388,109.35391428414039,21.912769117969372,6.7652865e+06
53.10850471639935,-148.09727870782643,27.678602952916407,1.1920355e+07
-110.15922190034995,-44.39289998210464,40.39171633582678,1.3868168e+07
-37.996533183885305,-178.59274254004225,14.78087350153184,1.4660361e+07
-160.53766329688415,-84.66691318121474,47.085950533860824,1.208299e+07
-47.03352729294102,121.3991154036575,18.24448084846801,7.5123065e+06
-88.83190324789854,70.82644251812286,38.33264505723509,8.783027e+06
97.79551362337611,156.46344354850237,17.355731965478753,1.1308597e+07
120.60124524057676,80.52517607971288,17.263917707164268,3.875846e+06
95.41901116639167,-34.3085581915513,27.78820025695137,1.2007094e+07
-122.43284035607601,138.42749251570876,30.49075022316537,1.55516e+07
-129.6224771679863,-34.0670242228546,46.37904165743038,6.7588065e+06
110.95106508146995,100.19707902101045,18.322874393241126,5.5746545e+06
52.61191447525121,142.68048325451292,16.382772515091467,5.952362e+06
54.696978547879525,-94.58521777047379,25.780535290084227,6.9192505e+06
172.42569662101897,-42.2301852935922,2.707513423667301,1.2966989e+07
-59.195583216135304,-85.66831223087745,24.736398131083295,1.0872332e+07
-168.62961311249938,-75.46352308783422,25.807971719855836,1.3972537e+07
64.37752932462581,158.5020427614603,30.12949129345454,8.345258e+06
-120.65994931881075,-19.806633888167113,16.55972671737478,1.0459911e+07
113.19839476180522,79.89602333949517,5.076597829827219,7.9350825e+06
-18.98581992721921,143.35573348291518,46.60770921607564,1.6973086e+07
101.11858269851056,-123.57448933150046,16.28165625254235,5.2055755e+06
151.20675345591377,-39.593340570285505,23.55145518086117,8.575189e+06
-51.41989790425052,-87.63124557536503,7.269095804762147,8.366432e+06
153.58774012293588,6.645079044732427,2.7385223033568233,1.4078858e+07
115.81209332026896,12.577619211945832,33.752918380068195,1.5651254e+07
-102.13387384269663,87.59790205011348,29.428598444913874,1.0248443e+07
157.5810852895337,6.738487899277374,28.914624630825433,1.0825093e+07
-51.09013161576112,-81.47963422374475,-0.6653988175517042,7.072e+06
-162.067680722432,76.48565660299181,22.411163286535313,1.8550744e+07
87.58976743107081,-98.53427527329654,10.116566303909636,7.239668e+06
-144.18288078303829,-115.05837788655721,-0.49162950024377006,2.7224236e+07
-21.628647239029732,-134.03813251630305,14.500806506042805,1.1254022e+07
-143.99298719364978,52.88497659294018,-0.1954920171207716,1.7409156e+07
148.60137982001658,-72.35935174484337,-2.768043519033763,8.661249e+06
-21.84707390772789,134.8809858380759,17.36065118409284,1.002095e+07
-117.73727700722829,136.43128531009324,46.25134034681913,1.4475526e+07
-151.69368693776212,-58.88404210321926,33.43252229686262,8.31992e+06
-67.75674928606779,140.28260641917626,39.90713687925356,5.61108e+06
-41.49596434399396,93.08129401359992,21.064584563779317,7.938345e+06
80.85754130982139,-84.55027648170486,8.832880446342726,8.967163e+06
44.13191050513677,158.11098036262428,27.00117033735785,8.1067485e+06
-134.45404137135841,19.86029727888976,12.962189141435704,1.165457e+07
105.07138142858707,55.87988511668036,11.490496760105746,7.8050155e+06
-104.64259832391053,43.135888207414126,4.800463790765182,6.1959205e+06
39.54113414081121,-152.5884795409976,4.254129669868875,1.042438e+07
85.27718032638057,-129.25074430862907,31.93875466938343,9.892639e+06
78.70580292562533,150.28593357172855,11.252001935229618,5.0608365e+06
-173.7371603665885,49.48600578093689,10.336632469017434,1.3875645e+07
107.70565513028288,-13.504825580558647,46.41690596637399,7.6381455e+06
60.17358163848445,-111.02108818552203,38.04874374282101,9.446676e+06
-149.87348130367667,-43.17981821505907,6.305541435188966,9.668663e+06
-30.476922904650166,-129.5006041508385,-0.4518803975698179,5.765561e+06
-38.98041810798313,-170.4200405144768,21.66211542372384,7.109125e+06
22.907098864898728,-114.51566763976398,30.569113813914896,1.1054459e+07
-23.175931024432202,-112.4227437799151,24.576077675871556,7.3335525e+06
96.37896577725616,31.402284848253856,36.75516256690502,1.6766497e+07
-101.01060771030772,143.17628077376816,34.554308901700644,1.0954261e+07
119.76618293141826,-139.83242388869405,35.72239713907226,1.2064159e+07
145.39270877827744,89.0256982089694,8.30509510788763,1.2383637e+07
45.590026559012216,-90.68840928972199,29.38957913552383,9.254758e+06
-115.62017354857383,-99.78459957939916,45.821351740126474,8.761618e+06
-69.19943167415238,-125.63302952274053,20.35040021946971,8.0468805e+06
92.0488396926271,-94.48327060681541,43.574991411023724,8.92179e+06
157.35724937822397,14.648963391986456,2.1697335204173154,1.4560585e+07
50.665051644257005,-176.29132064230103,14.482871859578935,4.5525555e+06
31.893806817825347,-104.12696584821623,33.11938030315348,1.1707478e+07
166.14518222853218,-13.975036878975317,-2.4699986734545583,1.3952731e+07
60.65774178858522,106.28070177466195,0.8050259477524204,8.583505e+06
-2.9468536766447357,-125.773881018982,43.149453328353644,1.072985e+07
-89.73586468908846,-148.02624623315864,18.744255741478387,8.597165e+06
50.326966157083376,95.21711010282002,-0.873317650578492,1.1112004e+07
-8.323840997246776,-109.63820019461447,36.27418469987398,1.1880653e+07
143.65435157604605,37.58370162212947,15.9759831021515,2.446577e+06
133.56947424413357,-123.91563484576004,20.809163374234526,9.717932e+06
-148.2676503574075,31.88095935519831,19.07962463748741,1.2355441e+07
31.315221499705615,131.20247808321562,12.387136738731222,8.354226e+06
-118.19080319719428,-15.265813283536234,-2.810503492690162,6.456816e+06
-118.31685562956457,-90.33626061000226,39.59829823473712,1.1843206e+07
70.2030342535462,-102.29445873379986,16.925860815817817,3.9648715e+06
8.179556708949377,151.9371037409216,41.227982695833504,9.535183e+06
-90.50226959367231,-134.85723651233735,13.042228761841052,9.753063e+06
-55.46994418617058,92.73403921907754,46.51218129154556,1.6603541e+07
138.89924725847084,100.66601008846618,22.701858977067996,9.093232e+06
-62.59248946508578,158.7635144077795,2.73465551460961,9.236999e+06
-52.248501346539435,-157.47813435954154,32.73787686002125,8.480644e+06
151.66154340826762,21.081014260107366,23.785406029891732,9.557881e+06
143.96504873194215,123.46387775240004,47.36365694618988,3.092358e+07
39.963581376519755,-110.3399488752586,44.77224092569714,1.2667193e+07
-169.90347542947,6.982031062277713,24.947432222921428,1.4993565e+07
-130.60195347086955,92.99224793597199,47.18101300447089,1.748658e+07
-96.23945760982294,-113.32768446083676,13.57063412459301,7.0816835e+06
84.99548943941011,-123.29923742389627,15.0543355948507,3.908612e+06
118.35833796152252,48.69595107869222,32.61464069400314,1.5455766e+07
-92.75119482882354,8.079186096586653,-0.9035124082495781,6.4083765e+06
127.19572862903637,-82.08757994573119,29.97410257856881,8.263947e+06
-136.43600067443975,20.28542344342955,-3.439397432132457,1.760015e+07
38.74001691291761,-89.75504207947212,47.44784394921742,1.6612791e+07
-101.12622720621629,12.635428701055986,-3.101209793742149,7.503906e+06
105.9193807620661,76.23669371508129,4.645122322516634,6.9818515e+06
61.63301382529664,-154.65832848686466,23.34871539984018,1.0258233e+07
102.88760161557582,132.7375279876585,27.18437299570872,1.0422624e+07
61.38614805888653,-80.7233684981222,31.73654295383287,1.0960732e+07
152.09910381174785,83.30946441576265,24.214169026306546,9.766909e+06
112.73379457852985,-87.14694672545313,25.967870184035547,9.924376e+06
-107.44569111501669,46.60482316832332,45.29633820027921,1.0292476e+07
181.41232524926704,-3.305184251302961,1.0053879775515142,1.7552114e+07
-80.23712503359177,-86.58913567581506,20.11225346998411,9.634622e+06
132.4577628400204,-13.264687240243147,29.498772752128154,1.2881607e+07
72.36581887265874,96.28144098108356,24.32653781253491,6.9776865e+06
103.20374911936045,6.114113654981878,9.4625694641184,9.967978e+06
8.750147659540374,133.64856743302153,-1.2872087497795486,1.5846151e+07
157.12627247462945,35.642487364938034,28.24034062660073,1.2161483e+07
116.58774290171408,90.54886977629275,26.069874326190476,1.0768012e+07
-90.70502708790498,-15.113263973488868,0.5655346126285593,6.454083e+06
93.01995684297839,143.96112277325244,34.14925264147857,7.6052895e+06
-7.713202014504134,169.41248696200228,36.22050190311344,1.4266356e+07
-162.23393102895585,-67.42509831441049,35.33717720373524,8.0084905e+06
-103.55556598465462,-103.01813766820516,40.64815548611192,1.0621742e+07
2.0510644828489433,115.52284527399377,2.2533709987443014,1.2318014e+07
16.71158698424398,-140.94333012136713,0.634097665730394,8.2679215e+06
13.621823263324641,126.41492445252796,31.496727178704433,8.616835e+06
-108.00345715946511,130.95395073397515,30.669909175149993,1.1858005e+07
-181.35393077950556,-18.280345460932864,-2.1157690021702837,1.6748452e+07
-125.40206026771932,100.00476461853327,4.042372998276118,7.828347e+06
156.9649711090717,-30.66797929261776,39.098772670068115,9.496554e+06
-51.25885389386292,-157.79293509632708,-3.7928103258294734,1.5636878e+07
-80.12779773450136,-158.30092808128086,6.998171544697709,1.6597235e+07
-13.253405144832698,165.56780051733688,1.915221365547179,1.1010824e+07
6.248717656907445,-143.22929184213677,12.59332504478757,1.0853129e+07
-125.81741325363977,107.33353572186968,7.8872235927036245,8.616007e+06
87.4838633342444,100.07418723634986,28.77039121362978,1.0563622e+07
112.81843492993568,109.56120044622628,2.550702577754334,7.702194e+06
-161.72527618717606,7.280494127437806,43.37186071780995,1.3557198e+07
-144.3558062265579,-53.28482483325067,23.197016038484815,9.969135e+06
136.32846379122202,-67.67330055096653,19.230240567699198,7.1909575e+06
-49.6987271788563,163.78435495216877,45.842716562176825,1.6051211e+07
-121.93005940770915,-66.75576358195721,39.48187734105682,1.2686971e+07
-20.40775747207806,-119.01870612694081,36.21004942083759,1.125129e+07
41.19688996809106,-112.5974954692377,7.669649908695952,1.0900106e+07
43.22438187134554,111.2250039554408,18.079450149158674,5.409289e+06
-73.165414999916,-116.11559040906702,-3.832004263973296,1.810882e+07
-37.63114017723095,-170.098525988101,15.190479454456401,1.330364e+07
-64.68194571834624,-82.373018435089,5.217861858580269,5.4139055e+06
-28.02266907032248,158.34024371204907,46.56050154953357,1.8177676e+07
-119.2985081370467,122.09585197092372,-3.589797038201731,2.944615e+07
-28.749449047545426,-143.60672400684345,19.450304316061946,7.316076e+06
17.33447693793272,-112.78440662967375,0.1881225772035591,9.139759e+06
169.9005879427258,-8.207931268896772,21.183432512234265,7.51566e+06
11.058154479463468,-153.21986623458113,0.06969782326903318,7.3317495e+06
107.23159714632146,108.78686751754299,19.0723791199362,6.375072e+06
-154.39142044928224,53.0075209761447,26.23242839598128,1.137063e+07
45.765210582598655,125.6890660456305,3.1203528561757605,8.553321e+06
-138.07608484678616,-61.7859288335151,41.605783886142184,8.980317e+06
-22.039534157255446,-132.49872997034936,29.38811117743259,9.894477e+06
-180.95687847030408,-44.573978503673516,44.63138038471907,1.4821901e+07
-111.32348837927508,-62.42568994291756,47.47124798129841,8.0443585e+06
147.6652820659716,-23.45859747654839,-3.0695919231844924,1.1392121e+07
97.86856327801695,-26.038643466478504,-2.595129851564181,1.0752456e+07
-79.21776710749833,161.09132379999187,21.450181860082274,1.3783299e+07
-110.36335550962714,117.1626075290974,26.86545386424373,1.0805741e+07
-73.70738487289712,-86.6128784828374,35.1251915265973,1.4637552e+07
-146.98771858575975,-44.06598566305729,9.069640108306297,1.1430108e+07
-93.61432751851835,-80.44119755133399,-3.257613883223753,1.357237e+07
-105.61431166121248,92.32953187489335,43.371691890164236,7.178503e+06
-87.1262470663777,-111.61974034797728,22.475273727613835,7.989267e+06
-75.75549712872109,-140.5968088530012,7.560671348099378,1.2144063e+07
124.44494170541714,86.91746178613931,35.250539223696926,1.202325e+07
152.8598811547045,-102.20407023152077,42.352430144893994,3.3169896e+07
-135.93625069718334,116.99844290124861,-3.6884381880996084,3.6653652e+07
57.63823191295369,-124.7607338925214,1.6828350579074327,9.110702e+06
-121.31127144804465,144.38307034818916,42.36918858162007,1.2942405e+07
-111.39048578873893,-115.4019683605493,37.50209103389943,1.2321398e+07
150.49055775916986,-114.55903623208825,-1.5141959157976221,6.943169e+06
-49.42147115591942,112.06415914255842,33.01431070037182,1.0956048e+07
-91.07328653865116,119.21690982797787,40.88317925985624,4.496806e+06
123.66664443635983,-78.90444087938255,11.32294710324279,4.1122138e+06
100.74382188399147,55.01361799036973,16.83924981438115,3.4277322e+06
187.59961397550074,-18.73114511758277,44.27577034615134,4.3451736e+07
170.30302635191788,-37.91092795258578,1.597335747867302,1.336417e+07
-180.99647392799733,-37.44764023265881,6.640153913307423,1.172987e+07
-160.55673537489986,-45.46361693175584,-2.419928618781273,1.0191588e+07
-105.83268482144908,5.681313639362173,41.463864772649906,1.1577258e+07
5.505280990915992,-104.8657888361673,31.23932901504137,1.0896679e+07
-23.099687385373272,161.87521715187444,10.96580783310146,1.7834584e+07
-101.46435333471348,-145.91836035341993,15.859590773385925,9.071634e+06
-103.25817564270983,-48.04679925549715,11.938197134382815,9.713062e+06
157.81102559813422,-56.42098731431213,18.851949542770356,6.5312265e+06
134.48973081422452,-73.98846296749863,7.016582376240345,4.9663165e+06
156.80033279501214,-36.464510832364226,32.46778588257308,5.0004405e+06
33.745352921270126,141.40060848903613,41.292963235805374,6.4364595e+06
137.99229286803535,-103.68491751807878,12.178355104476626,4.8069485e+06
-92.03065023519876,-155.5469591355667,31.804677474655072,1.2203238e+07
35.14989183929211,-93.96498168784832,14.478483889116688,8.594755e+06
71.35249162865676,105.4358486457956,26.906911420565216,8.2987335e+06
-36.89722653170389,-167.50729040074458,25.23905351901824,6.768541e+06
-163.9260675697936,-26.111172047452722,43.725380747005396,9.898572e+06
6.963384368571723,100.14773748227394,-0.25192587590662896,1.3472099e+07
173.09930618766265,8.424016452841443,-3.7145284980382085,1.4414051e+07
19.784240181407085,177.2034855846092,1.1174923140710076,1.2654221e+07
8.137404609749751,176.4483543491413,42.758163711112125,1.7386324e+07
-133.30173673133623,-5.972404084778617,3.1042303421622774,7.960005e+06
-86.47316658482555,162.82448068625825,9.619648751914289,1.8878718e+07
170.27390671556822,-50.26524766121073,7.511828081750147,9.249843e+06
-61.971895822387125,119.6831957672831,4.874566040561069,8.507167e+06
-123.01030114494885,-18.005116511920818,31.66980734202963,1.0983672e+07
161.1612314488504,61.82029521399585,-1.4020569993798164,1.1389656e+07
-89.7632201714901,-100.00323923527743,44.639722282570276,8.0355825e+06
192.8429748014286,-3.6573510577952537,-4.999999999999999,1.9289266e+07
190.3850021623923,-19.848500056428296,-4.999999999999999,1.901642e+07
192.33607670844623,-16.534033076437463,-4.999999999999999,1.9484112e+07
195.3089012990505,10.577351778823992,-4.999999999999999,1.9376656e+07
198.985590361052,-2.702208265808956,-4.999999999999999,2.0991238e+07
194.92586569571634,-7.813710321607119,-4.999999999999999,1.999366e+07
196.30721992664223,2.8414955173938274,-4.999999999999999,2.0008588e+07
191.13111495711604,2.9817800014484384,-4.999999999999999,1.8578112e+07
197.1261633410261,13.766672288617096,-4.999999999999999,1.9725644e+07
196.27544255931934,-5.1046372949211225,-4.999999999999999,2.0291866e+07
191.3093522503123,16.172565574405525,-4.999999999999999,1.799973e+07
192.308151940762,-15.47277253156958,-4.999999999999999,1.945758e+07
191.61800996278475,-1.087284541884003,-4.999999999999999,1.886696e+07
194.57336466667243,-8.552629479096039,-4.999999999999999,1.991689e+07
190.8576804465245,-7.444310996851948,-4.999999999999999,1.8871392e+07
193.92534302074102,-0.3318392014707001,-4.999999999999999,1.9467514e+07
190.96075937865277,1.6832750257039208,-4.999999999999999,1.8584604e+07
199.53223276300338,-2.2176536633263986,-4.999999999999999,2.113296e+07
196.17790704826461,6.460328217118484,-4.999999999999999,1.9815888e+07
196.8069983925258,-18.84368674882038,-4.999999999999999,2.0774962e+07
197.54726941903928,10.74704158380218,-4.999999999999999,1.9998754e+07
192.6317168136389,10.129506830958398,-4.999999999999999,1.86614e+07
192.71748229290438,1.1256533513044964,-4.999999999999999,1.9081702e+07
194.86170911511005,0.12331128729021756,-4.999999999999999,1.9710622e+07
197.83032349700625,18.306626262293037,-4.999999999999999,1.9677116e+07
192.00748974501468,14.657106204979128,-4.999999999999999,1.8265346e+07
194.1155329647501,19.729349846312537,-4.999999999999999,1.8564656e+07
197.6443261258787,-4.427488691892014,-4.999999999999999,2.066117e+07
194.43455680389872,19.47710863529864,-4.999999999999999,1.8667464e+07
195.19921812759077,5.741684480237296,-4.999999999999999,1.9572724e+07
198.37614883453475,10.117387491702175,-4.999999999999999,2.026754e+07
194.8458806941276,7.756441267504179,-4.999999999999999,1.9382284e+07
196.6497704701933,-6.8898635030807664,-4.999999999999999,2.045437e+07
197.01257490882176,-17.775440434385107,-4.999999999999999,2.0814354e+07
197.9086734118731,13.185301723679842,-4.999999999999999,1.9978114e+07
190.7811083524634,5.085346967587977,-4.999999999999999,1.8396266e+07
191.53775910725085,10.857541916344786,-4.999999999999999,1.833072e+07
199.8878324283838,-14.963832210175276,-4.999999999999999,2.1602524e+07
193.43427340867626,-12.085440523517876,-4.999999999999999,1.9692378e+07
190.8399987146091,-1.171779686499768,-4.999999999999999,1.8662604e+07
197.34899211085784,3.3426528754088203,-4.999999999999999,2.028394e+07
196.6250560272012,-14.873115744566029,-4.999999999999999,2.0649014e+07
193.96346503385115,-8.98310477742541,-4.999999999999999,1.9759052e+07
195.69807557569322,4.2160427109125855,-4.999999999999999,1.9779076e+07
196.21626408297215,10.236312891981552,-4.999999999999999,1.9647954e+07
196.01219542643466,-10.225677051878383,-4.999999999999999,2.0365316e+07
192.83107293838214,15.650291434316074,-4.999999999999999,1.8436722e+07
191.4895275072248,0.015223890937843265,-4.999999999999999,1.879189e+07
190.17530979988368,15.093614063364486,-4.999999999999999,1.7754364e+07
194.86730836501474,-15.342644571136294,-4.999999999999999,2.016179e+07
7.40728091246401,191.7188159166061,-4.999999999999999,2.6990812e+07
-14.99464332370623,194.74963759372847,-4.999999999999999,2.120328e+07
-13.472745115345628,192.17705493432925,-4.999999999999999,2.141138e+07
5.6362372356352655,199.18222484912505,-4.999999999999999,2.7057336e+07
18.615899541619015,195.65114272644095,-4.999999999999999,3.050401e+07
-1.706816362144567,194.68572318537974,-4.999999999999999,2.4647522e+07
-6.753640118183295,193.168323303142,-4.999999999999999,2.3183318e+07
16.33477293359211,192.8671441592265,-4.999999999999999,2.9604882e+07
1.780041882222965,193.36818348450177,-4.999999999999999,2.5526308e+07
11.952553203649492,198.67390207317587,-4.999999999999999,2.8844882e+07
18.501648458302903,192.00182275148597,-4.999999999999999,3.0140136e+07
-12.201995985916072,190.99828175022407,-4.999999999999999,2.1658004e+07
3.1185908959487185,192.9207395561846,-4.999999999999999,2.586954e+07
-12.274569631341842,197.30214142017368,-4.999999999999999,2.203853e+07
10.672470754444594,198.52806116402056,-4.999999999999999,2.8460488e+07
15.741247716980713,195.1909578095488,-4.999999999999999,2.9638866e+07
10.897499134687132,196.07712879494386,-4.999999999999999,2.8321058e+07
-0.6197902258511748,194.18295087021386,-4.999999999999999,2.491358e+07
0.8611860657189158,190.73884915804555,-4.999999999999999,2.5098318e+07
-17.02136099422542,190.03650173821646,-4.999999999999999,2.0459838e+07
-18.943402349148105,192.55341109944018,-4.999999999999999,2.0170182e+07
-14.109974310547573,198.80513728407786,-4.999999999999999,2.1704342e+07
-14.207146191591862,192.96938885734434,-4.999999999999999,2.1279722e+07
10.23450735003966,192.44890030382473,-4.999999999999999,2.7841884e+07
-3.063525383771735,194.36185351813802,-4.999999999999999,2.425262e+07
14.793377949950639,197.4624085462129,-4.999999999999999,2.9565434e+07
-6.080788608246957,196.69455334838008,-4.999999999999999,2.3594822e+07
3.5575686164017286,198.9902613471826,-4.999999999999999,2.6444256e+07
-0.9602402423171718,196.9031661593369,-4.999999999999999,2.5009772e+07
16.9537348847586,198.50670574249935,-4.999999999999999,3.0287222e+07
-1.7017410220847347,197.2691698588596,-4.999999999999999,2.4831e+07
0.17026666180749345,194.71466485529854,-4.999999999999999,2.5169972e+07
2.8321220468801456,196.87722665723538,-4.999999999999999,2.6073218e+07
12.677894490583208,196.3856912761516,-4.999999999999999,2.8860156e+07
7.729632218660519,191.43198721556652,-4.999999999999999,2.706022e+07
-11.819416930928261,196.67410810995196,-4.999999999999999,2.2105586e+07
13.766136028243105,190.56046159521682,-4.999999999999999,2.8687424e+07
-5.794049433994785,193.76697919062767,-4.999999999999999,2.347536e+07
3.562906236178337,198.16812689907167,-4.999999999999999,2.6381642e+07
-3.4130515313783345,199.7500604854807,-4.999999999999999,2.454638e+07
0.04975307071564349,195.69297187155072,-4.999999999999999,2.5204792e+07
12.28259432070668,199.41925880693873,-4.999999999999999,2.9005846e+07
16.455527637098985,192.86945585615302,-4.999999999999999,2.9639166e+07
-4.59697115094224,196.67089881872812,-4.999999999999999,2.3992092e+07
11.395388290535763,192.11527980670496,-4.999999999999999,2.8145114e+07
-14.533466118602812,194.50786071854017,-4.999999999999999,2.129762e+07
16.223816669402378,192.28305427405473,-4.999999999999999,2.9522998e+07
10.91110896850246,192.55489861095123,-4.999999999999999,2.804262e+07
-11.170811884971622,191.18515794937352,-4.999999999999999,2.1925498e+07
13.21583797710253,190.92486815719542,-4.999999999999999,2.856267e+07
-192.25363816273597,9.179736020873436,-4.999999999999999,3.903066e+07
-199.62379750504527,-6.427878880984551,-4.999999999999999,3.582822e+07
-195.90912586697277,9.723804595697255,-4.999999999999999,4.0730708e+07
-193.43473562230565,14.937517281849102,-4.999999999999999,4.1683172e+07
-199.05598228950174,-15.071575252754887,-4.999999999999999,3.2192712e+07
-195.30840573140827,9.662644475157942,-4.999999999999999,4.0460104e+07
-191.90714737674836,-18.889544991322065,-4.999999999999999,2.8296312e+07
-193.4791006416175,-19.813403922922117,-4.999999999999999,2.84835e+07
-190.68821534172483,11.856518946008144,-4.999999999999999,3.9393284e+07
-196.09542840826822,16.044470919471163,-4.999999999999999,4.3222796e+07
-194.0290549199191,-2.850247913830356,-4.999999999999999,3.5121224e+07
-198.3442679226718,2.692866028633801,-4.999999999999999,3.8967796e+07
-199.89325644631202,-10.54913666055101,-4.999999999999999,3.4281276e+07
-190.4672673192298,-8.889255639183864,-4.999999999999999,3.1500834e+07
-190.35546062754776,-16.131894725555686,-4.999999999999999,2.8776136e+07
-199.2128813407364,17.34421171965803,-4.999999999999999,4.5052024e+07
-198.3779858468747,14.303439326804423,-4.999999999999999,4.3524348e+07
-199.51167529660268,-5.1616415246660985,-4.999999999999999,3.6292624e+07
-197.14746403323667,2.2748503985024113,-4.999999999999999,3.832841e+07
-195.20963098765196,-4.841730471584079,-4.999999999999999,3.4794756e+07
-192.59029868894203,12.577948248573465,-4.999999999999999,4.044657e+07
-197.3947795365862,-10.947206100126088,-4.999999999999999,3.3213294e+07
-190.58597080194266,-4.752469319018315,-4.999999999999999,3.3102952e+07
-198.33643242513818,-16.873759860384315,-4.999999999999999,3.1240984e+07
-196.20737408168117,-2.975366764924847,-4.999999999999999,3.5900796e+07
-199.25839407147086,-13.293624919149332,-4.999999999999999,3.2963096e+07
-191.06804366590916,-7.761732594715527,-4.999999999999999,3.2142224e+07
-197.24087482721816,-18.161696887862814,-4.999999999999999,3.0370106e+07
-195.14575937301703,13.636993177437922,-4.999999999999999,4.191006e+07
-196.572143959374,-14.510317816647511,-4.999999999999999,3.1534412e+07
-197.96926208722468,-19.375431646112705,-4.999999999999999,3.015818e+07
-190.47061617125203,13.36938413055436,-4.999999999999999,3.986513e+07
-194.70409758204718,12.859005741025136,-4.999999999999999,4.1429332e+07
-192.45112298739153,5.741887125162367,-4.999999999999999,3.780649e+07
-199.16118623019958,15.573231770852372,-4.999999999999999,4.4347748e+07
-196.74710545859625,2.052052713889057,-4.999999999999999,3.808328e+07
-190.36135640366115,15.26433560468019,-4.999999999999999,4.0516864e+07
-198.28765876158658,-6.697733529911563,-4.999999999999999,3.521949e+07
-195.2288510947183,-9.987514230797641,-4.999999999999999,3.2800788e+07
-193.1644485806897,12.32797915404092,-4.999999999999999,4.059117e+07
-195.97701271089556,-19.740701160075073,-4.999999999999999,2.9346074e+07
-195.62327632235764,-17.51531474185092,-4.999999999999999,3.0059618e+07
-194.6640580523936,6.635777315653192,-4.999999999999999,3.903456e+07
-198.14685095885608,-8.261581164354183,-4.999999999999999,3.454652e+07
-191.64438646546915,2.6263112600086864,-4.999999999999999,3.630504e+07
-195.97121952691595,5.393343571654634,-4.999999999999999,3.9080364e+07
-190.40229329826212,-13.620341183290627,-4.999999999999999,2.9714964e+07
-192.24633486989399,9.368268166038517,-4.999999999999999,3.909774e+07
-190.2362018278477,6.121590901600712,-4.999999999999999,3.707038e+07
-195.97153680092438,-14.624945213656364,-4.999999999999999,3.1279404e+07
7.918066215990449,-198.21012936462756,-4.999999999999999,1.0935969e+07
-15.321944055642888,-192.9216491423318,-4.999999999999999,1.0053316e+07
13.245098318802484,-198.0827456915865,-4.999999999999999,1.1920217e+07
-13.884637006976504,-198.70644632676866,-4.999999999999999,9.237433e+06
3.950359444584923,-191.31897665268758,-4.999999999999999,1.1332492e+07
4.803830763686427,-199.54713169250658,-4.999999999999999,1.0248739e+07
7.574961242226485,-194.44011172651847,-4.999999999999999,1.1390009e+07
-0.7066434883666481,-193.1198300613747,-4.999999999999999,1.0465813e+07
-10.250908697190946,-197.14173390955983,-4.999999999999999,9.289551e+06
4.753282511095982,-195.3183704862149,-4.999999999999999,1.0823289e+07
-9.648767393604714,-196.47669925521973,-4.999999999999999,9.382561e+06
18.024873240635067,-195.70281687911546,-4.999999999999999,1.307824e+07
13.844954205975727,-190.31324086961527,-4.999999999999999,1.2982755e+07
19.429837106438328,-196.5788290414156,-4.999999999999999,1.3259846e+07
-14.628604008928782,-199.68785867258345,-4.999999999999999,9.200461e+06
6.529087866574587,-198.16978108930954,-4.999999999999999,1.0705968e+07
4.399726330043194,-194.6291632780334,-4.999999999999999,1.0875004e+07
-10.448650641415176,-197.2582408526804,-4.999999999999999,9.276196e+06
-9.761687766566078,-194.0303731773025,-4.999999999999999,9.745201e+06
6.772884923956901,-196.29915855920444,-4.999999999999999,1.099747e+07
19.588506155428256,-199.32622590845736,-4.999999999999999,1.3046377e+07
-11.583465052216413,-198.04080558759773,-4.999999999999999,9.198938e+06
7.167355312387677,-193.55156789615683,-4.999999999999999,1.1453748e+07
-11.278308151340877,-197.00064416719678,-4.999999999999999,9.323084e+06
-12.916103266793138,-199.98914398758728,-4.999999999999999,9.04613e+06
-1.0561171846102233,-197.43181381820344,-4.999999999999999,9.750913e+06
3.3242908063550693,-194.38886691820855,-4.999999999999999,1.0759493e+07
-15.677359886210082,-190.1967520268221,-4.999999999999999,1.0479139e+07
-5.887030097904089,-195.90315053049596,-4.999999999999999,9.582386e+06
3.6877251712381494,-192.2382668669145,-4.999999999999999,1.1148673e+07
19.227047663074536,-194.44661895953823,-4.999999999999999,1.3431425e+07
15.703015940499276,-195.56880348257027,-4.999999999999999,1.2660537e+07
-4.209956536837565,-192.68076888498885,-4.999999999999999,1.0217342e+07
14.180394684823588,-199.12302763767,-4.999999999999999,1.1989472e+07
-8.397465209408686,-193.2684303402025,-4.999999999999999,9.893726e+06
-16.168272775620387,-191.28560671668282,-4.999999999999999,1.0343116e+07
-11.319236757553334,-193.6142369399279,-4.999999999999999,9.809492e+06
18.976176190068472,-197.35749780065788,-4.999999999999999,1.310067e+07
-12.869336882646525,-194.61363462174216,-4.999999999999999,9.694185e+06
-5.001330192719974,-199.96502251965356,-4.999999999999999,9.063355e+06
14.130995903853297,-192.99323371138996,-4.999999999999999,1.2684999e+07
-17.309814683141717,-192.98480977281565,-4.999999999999999,1.0193645e+07
-18.28835148001891,-190.64782155545308,-4.999999999999999,1.0600751e+07
14.55763986104592,-194.54324920383115,-4.999999999999999,1.2570394e+07
-17.976070514333596,-198.06155380232983,-4.999999999999999,9.710306e+06
7.36567345266321,-193.73552354217054,-4.999999999999999,1.1456972e+07
15.03934764930927,-195.32348651176687,-4.999999999999999,1.2566404e+07
-0.6391645070178805,-190.1163619157889,-4.999999999999999,1.0984958e+07
-15.984586688977279,-197.43670674733494,-4.999999999999999,9.544714e+06
2.4084512197230663,-191.2540391246158,-4.999999999999999,1.1141963e+07
